%chk=Ac2.chk
%mem=500mw
%nprocs=4
# b3lyp/gen opt freq CPHF(Grid=OneStep)

butanedione, B3LYP/pcseg-2

0 1
C       0.080303     0.772464     0.000000
C      -0.080303    -0.772464     0.000000
O       1.187999     1.253253     0.000000
O      -1.187999    -1.253253     0.000000
C      -1.187999     1.578537     0.000000
C       1.187999    -1.578537     0.000000
H      -0.948814     2.637961     0.000000
H      -1.792041     1.323470     0.871802
H      -1.792041     1.323470    -0.871802
H       0.948814    -2.637961     0.000000
H       1.792041    -1.323470     0.871802
H       1.792041    -1.323470    -0.871802

@pcseg2.gbs

--Link1--
%chk=Ac2.chk
%mem=500mw
%nprocs=4
# rohf/gen geom=check guess=check

butanedione, ROHF/cc-pVTZ-F12

0 1

@ccpvtz-f12.gbs
