%mem=1000mw
%nprocs=12
# b3lyp/gen opt freq

butanedione, B3LYP/pcseg-2

0 1
C          0.739213      -0.232963       0.000000
C         -0.739213       0.232963       0.000000
O          0.991417      -1.415438       0.000000
O         -0.991417       1.415438       0.000000
C          1.778606       0.859755       0.000000
C         -1.778606      -0.859755       0.000000
H          2.776083       0.420155       0.000000
H          1.644249       1.504570       0.874313
H          1.644249       1.504570      -0.874313
H         -2.776083      -0.420155       0.000000
H         -1.644249      -1.504570       0.874313
H         -1.644249      -1.504570      -0.874313

@pcseg2.gbs

