%mem=1000mw
%nprocs=12
# b3lyp/gen opt freq 

CH3COO, B3LYP/pcseg-2

0 2
C     0.033988   -1.385447    0.000000
C     0.000000    0.103338    0.005000
O     1.019450    0.835170   -0.030000
H     1.062662   -1.739702    0.270000
H    -0.736518   -1.778899    0.726896
H    -0.236518   -1.738899   -1.036896
O    -1.056144    0.783599    0.025000

@pcseg2.gbs

