%chk=acetone.chk
%mem=500mw
%nprocs=4
# b3lyp/gen opt freq CPHF(Grid=OneStep)

acetone, B3LYP/pcseg-2

0 1
C       0.000000     0.000000     0.185066
O       0.000000     0.000000     1.394180
C      -0.000000     1.287729    -0.611455
C      -0.000000    -1.287729    -0.611455
H       0.000000     2.142400     0.059320
H      -0.000000    -2.142400     0.059320
H      -0.876769     1.329449    -1.261254
H       0.876769     1.329449    -1.261254
H       0.876769    -1.329449    -1.261254
H      -0.876769    -1.329449    -1.261254

@pcseg2.gbs

--Link1--
%chk=acetone.chk
%mem=500mw
%nprocs=4
# rohf/gen geom=check guess=check

acetone, ROHF/cc-pVTZ-F12

0 1

@ccpvtz-f12.gbs
