%chk=acoh.chk
%mem=500mw
%nprocs=4
# b3lyp/gen opt freq CPHF(Grid=OneStep)

acetic acid, B3LYP/pcseg-2

0 1
C       1.067677    -0.900975     0.000000
C       0.000000     0.155398     0.000000
O       0.180247     1.344395     0.000000
H       2.045333    -0.430909     0.000000
H       0.958591    -1.537527     0.877890
H       0.958591    -1.537527    -0.877890
O      -1.242078    -0.389812     0.000000
H      -1.873927     0.342768     0.000000

@pcseg2.gbs

--Link1--
%chk=acoh.chk
%mem=500mw
%nprocs=4
# rohf/gen geom=check guess=check

acetic acid, ROHF/cc-pVTZ-F12

0 1

@ccpvtz-f12.gbs
