%mem=500mw
%nprocs=4
# b3lyp/gen opt freq

acetic acid, B3LYP/pcseg-2

0 1
C	1.0601480	-0.9168240	0.0000000
C	0.0000000	0.1558890	0.0000000
O	0.1929200	1.3507200	0.0000000
H	2.0466330	-0.4529080	0.0000000
H	0.9466140	-1.5554440	0.8821880
H	0.9466140	-1.5554440	-0.8821880
O	-1.2476140	-0.3815210	0.0000000
H	-1.8631950	0.3758130	0.0000000

@pcseg2.gbs

