%mem=1000mw
%nprocs=12
# b3lyp/gen opt freq

propenal, B3LYP/pcseg-2

0 1
C	-0.1486950	-0.7446160	0.0000000
C	0.0000000	0.7182880	0.0000000
C	1.2050670	1.2847960	0.0000000
O	-1.2092030	-1.3222800	0.0000000
H	0.8064450	-1.3096410	0.0000000
H	-0.9143600	1.2993140	0.0000000
H	1.3387380	2.3576990	0.0000000
H	2.1045720	0.6800540	0.0000000

@pcseg2.gbs

