%mem=500mw
%nprocs=4
# b3lyp/gen opt freq 

allene, B3LYP/pcseg-2

0 1
C	0.0000000	0.0000000	0.0000000
C	0.0000000	0.0000000	1.3000810
C	0.0000000	0.0000000	-1.3000810
H	0.0000000	0.9250500	1.8636080
H	0.0000000	-0.9250500	1.8636080
H	0.9250500	0.0000000	-1.8636080
H	-0.9250500	0.0000000	-1.8636080

@pcseg2.gbs

