%chk=allene.chk
%mem=500mw
%nprocs=4
# b3lyp/gen opt freq CPHF(Grid=OneStep)

allene, B3LYP/pcseg-2

0 1
C       0.000000     0.000000     0.000000
C       0.000000     0.000000     1.300081
C       0.000000     0.000000    -1.300081
H       0.000000     0.925050     1.863608
H      -0.000000    -0.925050     1.863608
H       0.925050    -0.000000    -1.863608
H      -0.925050     0.000000    -1.863608

@pcseg2.gbs

--Link1--
%chk=allene.chk
%mem=500mw
%nprocs=4
# rohf/gen geom=check guess=check

allene, ROHF/cc-pVTZ-F12

0 1

@ccpvtz-f12.gbs
