%mem=1000mw
%nprocs=12
# b3lyp/gen opt freq

methoxybenzene, B3LYP/pcseg-2

0 1
C	0.0000000	0.5284000	0.0000000
C	0.9229710	-0.5183940	0.0000000
C	0.4672580	-1.8383800	0.0000000
C	-0.8902550	-2.1246860	0.0000000
C	-1.8077020	-1.0710920	0.0000000
C	-1.3717620	0.2434110	0.0000000
O	0.3352100	1.8477070	0.0000000
C	1.7030720	2.2088870	0.0000000
H	1.9865880	-0.3247930	0.0000000
H	1.1923720	-2.6437620	0.0000000
H	-1.2349790	-3.1508580	0.0000000
H	-2.8712400	-1.2785990	0.0000000
H	-2.0711230	1.0697820	0.0000000
H	1.7312880	3.2966700	0.0000000
H	2.2219600	1.8405160	0.8915310
H	2.2219600	1.8405160	-0.8915310

@pcseg2.gbs

