%mem=1000mw
%nprocs=12
# b3lyp/gen opt freq

a,d-dibenzobenzene, B3LYP/pcseg-2

0 1
C	0.0000000	2.4709440	1.4014740
C	0.0000000	3.6462290	0.7107540
C	0.0000000	3.6462290	-0.7107540
C	0.0000000	2.4709440	-1.4014740
C	0.0000000	-2.4709440	-1.4014740
C	0.0000000	-3.6462290	-0.7107540
C	0.0000000	-3.6462290	0.7107540
C	0.0000000	-2.4709440	1.4014740
C	0.0000000	0.0000000	1.3982430
C	0.0000000	0.0000000	-1.3982430
C	0.0000000	1.2189030	0.7198050
C	0.0000000	1.2189030	-0.7198050
C	0.0000000	-1.2189030	-0.7198050
C	0.0000000	-1.2189030	0.7198050
H	0.0000000	2.4702060	2.4842420
H	0.0000000	4.5887570	1.2418240
H	0.0000000	4.5887570	-1.2418240
H	0.0000000	2.4702060	-2.4842420
H	0.0000000	-2.4702060	-2.4842420
H	0.0000000	-4.5887570	-1.2418240
H	0.0000000	-4.5887570	1.2418240
H	0.0000000	-2.4702060	2.4842420
H	0.0000000	0.0000000	2.4818900
H	0.0000000	0.0000000	-2.4818900

@pcseg2.gbs

