%chk=anthracene.chk
%mem=1000mw
%nprocs=4
# b3lyp/gen opt freq CPHF(Grid=OneStep)

a,d-dibenzobenzene, B3LYP/pcseg-2

0 1
C       0.000000     2.470944     1.401474
C       0.000000     3.646229     0.710754
C       0.000000     3.646229    -0.710754
C       0.000000     2.470944    -1.401474
C      -0.000000    -2.470944    -1.401474
C      -0.000000    -3.646229    -0.710754
C      -0.000000    -3.646229     0.710754
C      -0.000000    -2.470944     1.401474
C       0.000000     0.000000     1.398243
C       0.000000     0.000000    -1.398243
C       0.000000     1.218903     0.719805
C       0.000000     1.218903    -0.719805
C      -0.000000    -1.218903    -0.719805
C      -0.000000    -1.218903     0.719805
H       0.000000     2.470206     2.484242
H       0.000000     4.588757     1.241824
H       0.000000     4.588757    -1.241824
H       0.000000     2.470206    -2.484242
H      -0.000000    -2.470206    -2.484242
H      -0.000000    -4.588757    -1.241824
H      -0.000000    -4.588757     1.241824
H      -0.000000    -2.470206     2.484242
H       0.000000     0.000000     2.481890
H       0.000000     0.000000    -2.481890

@pcseg2.gbs

--Link1--
%chk=anthracene.chk
%mem=1000mw
%nprocs=4
# rohf/gen geom=check guess=check

a,d-dibenzobenzene, ROHF/cc-pVTZ-F12

0 1

@ccpvtz-f12.gbs
