%mem=1000mw
%nprocs=12
# b3lyp/gen opt freq

o-benzyne, B3LYP/pcseg-2

0 1
C	0.0000000	0.6205160	-1.2310210
C	0.0000000	-0.6205160	-1.2310210
C	0.0000000	1.4555810	-0.1336170
C	0.0000000	-1.4555810	-0.1336170
C	0.0000000	0.7005530	1.0536250
C	0.0000000	-0.7005530	1.0536250
H	0.0000000	2.5354080	-0.1354340
H	0.0000000	-2.5354080	-0.1354340
H	0.0000000	1.2245140	2.0015130
H	0.0000000	-1.2245140	2.0015130

@pcseg2.gbs

