%mem=1000mw
%nprocs=12
# b3lyp/gen opt freq

benzyl, B3LYP/pcseg-2

0 2
C	0.0000000	0.0000000	0.9935700
C	0.0000000	1.2155760	0.2512170
C	0.0000000	1.2092720	-1.1310940
C	0.0000000	0.0000000	-1.8357310
C	0.0000000	-1.2092720	-1.1310940
C	0.0000000	-1.2155760	0.2512170
C	0.0000000	0.0000000	2.3962370
H	0.0000000	2.1562980	0.7932950
H	0.0000000	2.1495130	-1.6733240
H	0.0000000	0.0000000	-2.9201910
H	0.0000000	-2.1495130	-1.6733240
H	0.0000000	-2.1562980	0.7932950
H	0.0000000	0.9271060	2.9571570
H	0.0000000	-0.9271060	2.9571570

@pcseg2.gbs

