%mem=500mw
%nprocs=8
# b3lyp/gen opt freq

benzene, B3LYP/pcseg-2

0 1
C	0.0000000	1.3939230	0.0000000
C	1.2071720	0.6969610	0.0000000
C	1.2071720	-0.6969610	0.0000000
C	0.0000000	-1.3939230	0.0000000
C	-1.2071720	-0.6969610	0.0000000
C	-1.2071720	0.6969610	0.0000000
H	0.0000000	2.4783340	0.0000000
H	2.1463010	1.2391670	0.0000000
H	2.1463010	-1.2391670	0.0000000
H	0.0000000	-2.4783340	0.0000000
H	-2.1463010	-1.2391670	0.0000000
H	-2.1463010	1.2391670	0.0000000

@pcseg2.gbs

