%mem=1000mw
%nprocs=12
# b3lyp/gen opt freq

butadien-2-yl acetylene, B3LYP/pcseg-2

0 1
C          0.157743       1.938699       0.000000
C         -0.027606       0.605669       0.000000
C          1.093404      -0.281759       0.000000
C          2.024326      -1.045247       0.000000
C         -1.378547       0.026214       0.000000
C         -1.664265      -1.276151       0.000000
H          1.148326       2.375407       0.000000
H         -0.689126       2.616346       0.000000
H          2.854714      -1.707153       0.000000
H         -0.882313      -2.027763       0.000000
H         -2.689852      -1.627012       0.000000
H         -2.183305       0.758038       0.000000

@pcseg2.gbs

