%chk=butadien2ol.chk
%mem=500mw
%nprocs=4
# b3lyp/gen opt freq CPHF(Grid=OneStep)

1,3-butadien-2-ol, B3LYP/pcseg-2

0 1
C      -0.598245     1.711121     0.000000
C       0.000000     0.513327     0.000000
O       1.356569     0.347223     0.000000
C      -0.742843    -0.743057     0.000000
C      -0.190205    -1.954580     0.000000
H      -1.674070     1.782375     0.000000
H      -0.035546     2.635018     0.000000
H       0.882231    -2.085492     0.000000
H      -0.802303    -2.845108     0.000000
H      -1.819759    -0.633386     0.000000
H       1.784648     1.207950     0.000000

@pcseg2.gbs

--Link1--
%chk=butadien2ol.chk
%mem=500mw
%nprocs=4
# rohf/gen geom=check guess=check

1,3-butadien-2-ol, ROHF/cc-pVTZ-F12

0 1

@ccpvtz-f12.gbs
