%chk=butane.chk
%mem=500mw
%nprocs=4
# b3lyp/gen opt freq CPHF(Grid=OneStep)

n-butane, B3LYP/pcseg-2

0 1
C      -0.419954     0.639069     0.000000
C       0.419954    -0.639069     0.000000
C       0.419954     1.915287     0.000000
C      -0.419954    -1.915287     0.000000
H      -1.078375     0.634967     0.873996
H      -1.078375     0.634967    -0.873996
H       1.078375    -0.634967     0.873996
H       1.078375    -0.634967    -0.873996
H      -0.207683     2.807478     0.000000
H       1.063716     1.963163     0.880651
H       1.063716     1.963163    -0.880651
H       0.207683    -2.807478     0.000000
H      -1.063716    -1.963163     0.880651
H      -1.063716    -1.963163    -0.880651

@pcseg2.gbs

--Link1--
%chk=butane.chk
%mem=500mw
%nprocs=4
# rohf/gen geom=check guess=check

n-butane, ROHF/cc-pVTZ-F12

0 1

@ccpvtz-f12.gbs
