%mem=500mw
%nprocs=4
# b3lyp/gen opt freq 

n-butane, B3LYP/pcseg-2

0 1
C	-0.4206090	0.6390180	0.0000000
C	0.4206090	-0.6390180	0.0000000
C	0.4206090	1.9153780	0.0000000
C	-0.4206090	-1.9153780	0.0000000
H	-1.0789220	0.6351330	0.8743960
H	-1.0789220	0.6351330	-0.8743960
H	1.0789220	-0.6351330	0.8743960
H	1.0789220	-0.6351330	-0.8743960
H	-0.2065550	2.8081000	0.0000000
H	1.0644410	1.9629030	0.8807940
H	1.0644410	1.9629030	-0.8807940
H	0.2065550	-2.8081000	0.0000000
H	-1.0644410	-1.9629030	0.8807940
H	-1.0644410	-1.9629030	-0.8807940

@pcseg2.gbs

