%chk=butene2.chk
%mem=500mw
%nprocs=4
# b3lyp/gen opt freq CPHF(Grid=OneStep)

2-butene (trans), B3LYP/pcseg-2

0 1
C       0.323025     0.580560     0.000000
C      -0.323025    -0.580560     0.000000
C      -0.323025     1.931576     0.000000
C       0.323025    -1.931576     0.000000
H       1.410423     0.570280     0.000000
H      -1.410423    -0.570280     0.000000
H      -1.410509     1.854813     0.000000
H       1.410509    -1.854813     0.000000
H      -0.024783     2.513242     0.876252
H      -0.024783     2.513242    -0.876252
H       0.024783    -2.513242     0.876252
H       0.024783    -2.513242    -0.876252

@pcseg2.gbs

--Link1--
%chk=butene2.chk
%mem=500mw
%nprocs=4
# rohf/gen geom=check guess=check

2-butene (trans), ROHF/cc-pVTZ-F12

0 1

@ccpvtz-f12.gbs
