%mem=500mw
%nprocs=8
# b3lyp/gen opt freq

1-butene, B3LYP/pcseg-2

0 1
C	1.7274160	-0.2476170	-0.2938850
C	0.5391970	0.5208710	0.3072050
C	-0.7240330	-0.2930530	0.3410680
C	-1.8578150	0.0164850	-0.2808030
H	-0.6763870	-1.2144970	0.9212010
H	1.5263800	-0.5272720	-1.3313440
H	2.6370680	0.3586650	-0.2749220
H	1.9278230	-1.1664180	0.2654920
H	0.7968830	0.8249060	1.3300280
H	0.3656390	1.4418850	-0.2586000
H	-1.9521680	0.9222790	-0.8728750
H	-2.7338300	-0.6196590	-0.2204820

@pcseg2.gbs

