%chk=Bz2.chk
%mem=1000mw
%nprocs=4
# b3lyp/gen opt freq CPHF(Grid=OneStep)

1,2-diphenylethane, B3LYP/pcseg-2

0 1
C      -1.860171    -1.764237    -1.475345
C       1.860171     1.764237    -1.475345
C       1.645906     0.878229    -0.424970
C       0.706928     3.482336    -0.256552
C      -1.390422    -3.069568    -1.395528
C       1.390422     3.069568    -1.395528
C      -1.645906    -0.878229    -0.424970
C      -0.706928    -3.482336    -0.256552
C      -0.960147    -1.277088     0.722587
C       0.960147     1.277088     0.722587
C       0.496346     2.593160     0.790025
C      -0.496346    -2.593160     0.790025
C      -0.706928    -0.317408     1.859761
C       0.706928     0.317408     1.859761
H      -2.395342    -1.433586    -2.355688
H       2.395342     1.433586    -2.355688
H      -1.558912    -3.760795    -2.210355
H       1.558912     3.760795    -2.210355
H      -2.014762     0.136833    -0.497439
H       2.014762    -0.136833    -0.497439
H       0.343449     4.498740    -0.180756
H      -0.343449    -4.498740    -0.180756
H      -0.029552     2.927534     1.676469
H       0.029552    -2.927534     1.676469
H       1.451376    -0.480439     1.839825
H      -1.451376     0.480439     1.839825
H      -0.835971    -0.844245     2.808072
H       0.835971     0.844245     2.808072

@pcseg2.gbs

--Link1--
%chk=Bz2.chk
%mem=1000mw
%nprocs=4
# rohf/gen geom=check guess=check

1,2-diphenylethane, ROHF/cc-pVTZ-F12

0 1

@ccpvtz-f12.gbs
