%chk=c.chk
%mem=500mw
%nprocs=4
# b3lyp/gen opt freq CPHF(Grid=OneStep)

carbon atom, B3LYP/pcseg-2

0 3
C       0.000000     0.000000     0.000000

@pcseg2.gbs

--Link1--
%chk=c.chk
%mem=500mw
%nprocs=4
# rohf/gen geom=check guess=check

carbon atom, ROHF/cc-pVTZ-F12

0 3

@ccpvtz-f12.gbs
