%mem=1000mw
%nprocs=12
# b3lyp/gen opt freq

hexachloroethane, B3LYP/pcseg-2

0 1
C	0.0000000	0.0000000	0.7947600
C	0.0000000	0.0000000	-0.7947600
Cl	0.0000000	1.6784270	1.4030950
Cl	-1.4535610	-0.8392140	1.4030950
Cl	1.4535610	-0.8392140	1.4030950
Cl	0.0000000	-1.6784270	-1.4030950
Cl	-1.4535610	0.8392140	-1.4030950
Cl	1.4535610	0.8392140	-1.4030950

@pcseg2.gbs

