%chk=c2cl6.chk
%mem=500mw
%nprocs=4
# b3lyp/gen opt freq CPHF(Grid=OneStep)

hexachloroethane, B3LYP/pcseg-2

0 1
C       0.000000     0.000000     0.794991
C      -0.000000    -0.000000    -0.794991
Cl      0.000000     1.677415     1.404628
Cl     -1.452684    -0.838708     1.404628
Cl      1.452684    -0.838708     1.404628
Cl     -0.000000    -1.677415    -1.404628
Cl     -1.452684     0.838708    -1.404628
Cl      1.452684     0.838708    -1.404628

@pcseg2.gbs

--Link1--
%chk=c2cl6.chk
%mem=500mw
%nprocs=4
# rohf/gen geom=check guess=check

hexachloroethane, ROHF/cc-pVTZ-F12

0 1

@ccpvtz-f12.gbs
