%mem=500mw
%nprocs=4
# b3lyp/gen opt freq

dichloroacetylene, B3LYP/pcseg-2

0 1
C	0.0000000	0.0000000	0.5997930
C	0.0000000	0.0000000	-0.5997930
Cl	0.0000000	0.0000000	2.2470690
Cl	0.0000000	0.0000000	-2.2470690

@pcseg2.gbs

