%mem=500mw
%nprocs=4
# b3lyp/gen opt freq

difluoroacetylene, B3LYP/pcseg-2

0 1
C	0.0000000	0.0000000	0.5923670
C	0.0000000	0.0000000	-0.5923670
F	0.0000000	0.0000000	1.8787060
F	0.0000000	0.0000000	-1.8787060

@pcseg2.gbs

