%mem=500mw
# b3lyp/gen opt freq

C2F4, B3LYP/pcseg-2

0 1
C
C 1 1.4
F 1 r 2 a
F 1 r 2 a 3 180.
F 2 r 1 a 3 0.
F 2 r 1 a 3 180.

r 1.3
a 120.

@pcseg2.gbs

