%mem=1000mw
%nprocs=12
# b3lyp/gen opt freq

hexafluoroethane, B3LYP/pcseg-2

0 1
C	0.0000000	0.0000000	0.7739820
C	0.0000000	0.0000000	-0.7739820
F	0.0000000	1.2513750	1.2220750
F	-1.0837230	-0.6256880	1.2220750
F	1.0837230	-0.6256880	1.2220750
F	0.0000000	-1.2513750	-1.2220750
F	-1.0837230	0.6256880	-1.2220750
F	1.0837230	0.6256880	-1.2220750

@pcseg2.gbs

