%mem=1000mw
%nprocs=12
# b3lyp/gen opt freq

vinoxyl, B3LYP/pcseg-2

0 2
C	0.0000000	0.4266200	0.0000000
H	0.3048420	1.4922190	0.0000000
C	1.0548650	-0.5301130	0.0000000
O	-1.1926560	0.1175430	0.0000000
H	2.0955190	-0.2244480	0.0000000
H	0.8117000	-1.5871520	0.0000000

@pcseg2.gbs

