%chk=c2h3cl.chk
%mem=500mw
%nprocs=4
# b3lyp/gen opt freq CPHF(Grid=OneStep)

C2H3Cl, B3LYP/pcseg-2

0 1
C       1.288253     1.047844     0.000000
C       0.000000     0.759985     0.000000
H       1.601513     2.082873     0.000000
H       2.053304     0.284876     0.000000
H      -0.784061     1.502380     0.000000
Cl     -0.623545    -0.865712    -0.000000

@pcseg2.gbs

--Link1--
%chk=c2h3cl.chk
%mem=500mw
%nprocs=4
# rohf/gen geom=check guess=check

C2H3Cl, ROHF/cc-pVTZ-F12

0 1

@ccpvtz-f12.gbs
