%mem=500mw
%nprocs=8
# b3lyp/gen opt freq

fluoroethylene, B3LYP/pcseg-2

0 1
C	0.0000000	0.4267090	0.0000000
C	1.1857640	-0.1565970	0.0000000
F	-1.1455020	-0.2597460	0.0000000
H	-0.1719060	1.4989710	0.0000000
H	1.2870920	-1.2347220	0.0000000
H	2.0797490	0.4527890	0.0000000

@pcseg2.gbs

