%mem=500mw
# b3lyp/gen opt freq

C2H3Cl, B3LYP/pcseg-2

0 1
C
C 1 1.4
H 1 1. 2 120.
H 1 1. 2 120. 3 180.
H 2 1. 1 120. 3 0.
Cl 2 1.7 1 120. 3 180.

@pcseg2.gbs

