%chk=c2h3nh2.chk
%mem=500mw
%nprocs=4
# b3lyp/gen opt freq CPHF(Grid=OneStep)

vinyl amine, B3LYP/pcseg-2

0 1
C       1.249119    -0.195815     0.013977
C       0.069459     0.426632    -0.000637
N      -1.181189    -0.169222    -0.078053
H       1.329947    -1.275279     0.018085
H       2.165063     0.373120     0.005217
H       0.029151     1.509624    -0.008963
H      -1.220592    -1.153763     0.130775
H      -1.946718     0.345947     0.321218

@pcseg2.gbs

--Link1--
%chk=c2h3nh2.chk
%mem=500mw
%nprocs=4
# rohf/gen geom=check guess=check

vinyl amine, ROHF/cc-pVTZ-F12

0 1

@ccpvtz-f12.gbs
