%chk=c2h3f.chk
%mem=500mw
%nprocs=4
# b3lyp/gen opt freq CPHF(Grid=OneStep)

fluoroethylene, B3LYP/pcseg-2

0 1
C       0.000000     0.434138     0.000000
C       1.185770    -0.139038     0.000000
F      -1.143176    -0.281397     0.000000
H      -0.194318     1.497600     0.000000
H       1.297191    -1.213266     0.000000
H       2.071093     0.477643     0.000000

@pcseg2.gbs

--Link1--
%chk=c2h3f.chk
%mem=500mw
%nprocs=4
# rohf/gen geom=check guess=check

fluoroethylene, ROHF/cc-pVTZ-F12

0 1

@ccpvtz-f12.gbs
