%mem=500mw
%nprocs=6
# b3lyp/gen opt freq 

vinyl amine, B3LYP/pcseg-2

0 1
C	1.2516150	-0.1954480	0.0176630
C	0.0688340	0.4263640	-0.0011100
N	-1.1883630	-0.1671410	-0.0874340
H	1.3364690	-1.2784570	0.0253950
H	2.1723210	0.3726840	-0.0028570
H	0.0287040	1.5131370	-0.0163500
H	-1.2104900	-1.1547660	0.1268530
H	-1.9311560	0.3318960	0.3796760

@pcseg2.gbs

