%mem=500mw
%nprocs=4
# b3lyp/gen opt freq

vinyl, B3LYP/pcseg-2

0 2
C	0.0480360	0.7170340	0.0000000
C	0.0480360	-0.5841520	0.0000000
H	-0.6615610	1.5283070	0.0000000
H	-0.8794500	-1.1595680	0.0000000
H	0.9645800	-1.1660330	0.0000000

@/home/irikura/basis/pcseg2.gbs

