%chk=c2h3oh.chk
%mem=500mw
%nprocs=4
# b3lyp/gen opt freq CPHF(Grid=OneStep)

vinyl alcohol, B3LYP/pcseg-2

0 1
C       1.211429    -0.101127     0.000000
C       0.000000     0.441057     0.000000
O      -1.190521    -0.217626     0.000000
H       1.366578    -1.172803     0.000000
H       2.084694     0.531871     0.000000
H      -0.159821     1.510785     0.000000
H      -1.035856    -1.168422     0.000000

@pcseg2.gbs

--Link1--
%chk=c2h3oh.chk
%mem=500mw
%nprocs=4
# rohf/gen geom=check guess=check

vinyl alcohol, ROHF/cc-pVTZ-F12

0 1

@ccpvtz-f12.gbs
