%mem=500mw
# b3lyp/gen opt freq

C2H4, B3LYP/pcseg-2

0 1
C
C 1 1.4
H 1 r 2 a
H 1 r 2 a 3 180.
H 2 r 1 a 3 0.
H 2 r 1 a 3 180.

r 1.
a 120.

@pcseg2.gbs

