%chk=c2h4nh.chk
%mem=500mw
%nprocs=4
# b3lyp/gen opt freq CPHF(Grid=OneStep)

aziridine, B3LYP/pcseg-2

0 1
N      -0.037949     0.871889     0.000000
H       0.888247     1.282185     0.000000
C      -0.037949    -0.397000     0.739944
C      -0.037949    -0.397000    -0.739944
H      -0.951862    -0.607994     1.279224
H      -0.951862    -0.607994    -1.279224
H       0.868257    -0.702710     1.248262
H       0.868257    -0.702710    -1.248262

@pcseg2.gbs

--Link1--
%chk=c2h4nh.chk
%mem=500mw
%nprocs=4
# rohf/gen geom=check guess=check

aziridine, ROHF/cc-pVTZ-F12

0 1

@ccpvtz-f12.gbs
