%mem=500mw
%nprocs=6
# b3lyp/gen opt freq symm=loose

aziridine, B3LYP/pcseg-2

0 1
N	-0.0382270	0.8737580	0.0000000
H	0.8938760	1.2791070	0.0000000
C	-0.0382270	-0.3971420	 0.7420460
C	-0.0382270	-0.3971420	-0.7420460
H	-0.9537800	-0.6064910	 1.2856830
H	-0.9537800	-0.6064910	-1.2856830
H	0.8700000	-0.7083610	 1.2516260
H	0.8700000	-0.7083610	-1.2516260

@pcseg2.gbs

