%chk=c2h5cooh.chk
%mem=500mw
%nprocs=4
# b3lyp/gen opt freq CPHF(Grid=OneStep)

propanoic acid, B3LYP/pcseg-2

0 1
C      -0.000000     0.572404     0.000000
C      -0.589303    -0.816153     0.000000
C       0.459883    -1.919597     0.000000
O      -0.968652     1.522790     0.000000
O       1.170513     0.849724     0.000000
H      -1.247705    -0.889201     0.868946
H      -1.247705    -0.889201    -0.868946
H      -0.021524    -2.897107     0.000000
H       1.100502    -1.852905    -0.877945
H       1.100502    -1.852905     0.877945
H      -0.522434     2.381273     0.000000

@pcseg2.gbs

--Link1--
%chk=c2h5cooh.chk
%mem=500mw
%nprocs=4
# rohf/gen geom=check guess=check

propanoic acid, ROHF/cc-pVTZ-F12

0 1

@ccpvtz-f12.gbs
