%mem=500mw
%nprocs=8
# b3lyp/gen opt freq

fluoroethane, B3LYP/pcseg-2

0 1
C	0.0000000	0.5554240	0.0000000
C	1.1191330	-0.4687850	0.0000000
F	-1.2252990	-0.0821490	0.0000000
H	0.0516750	1.1980760	0.8885390
H	0.0516750	1.1980760	-0.8885390
H	2.0916390	0.0340790	0.0000000
H	1.0589530	-1.1053640	0.8873520
H	1.0589530	-1.1053640	-0.8873520

@pcseg2.gbs

