%chk=c2h5.chk
%mem=500mw
%nprocs=4
# b3lyp/gen opt freq CPHF(Grid=OneStep)

ethyl, B3LYP/pcseg-2

0 2
C       0.009158    -0.691752    -0.000000
C       0.009158     0.792095     0.000000
H       0.502716    -1.098842     0.884331
H      -1.011594    -1.101158    -0.000000
H       0.502716    -1.098842    -0.884331
H      -0.051865     1.348392    -0.924022
H      -0.051865     1.348392     0.924022

@pcseg2.gbs

--Link1--
%chk=c2h5.chk
%mem=500mw
%nprocs=4
# rohf/gen geom=check guess=check

ethyl, ROHF/cc-pVTZ-F12

0 2

@ccpvtz-f12.gbs
