%mem=500mw
# b3lyp/gen opt freq

Ethane, B3LYP/pcseg-2

0 1
C
C 1 1.3
H 1 r 2 a
H 1 r 2 a 3 120.
H 1 r 2 a 3 -120.
H 2 r 1 a 3 180.
H 2 r 1 a 6 120.
H 2 r 1 a 6 -120.

r 1.
a 109.5

@pcseg2.gbs

