%mem=1000mw
%nprocs=12
# b3lyp/gen opt freq

trifluoroethylene, B3LYP/pcseg-2

0 1
C	0.0000000	0.4334550	0.0000000
C	-0.6965630	-0.6928640	0.0000000
F	1.3086170	0.5098120	0.0000000
F	-0.5633910	1.6213750	0.0000000
F	-0.0834210	-1.8790610	0.0000000
H	-1.7768700	-0.7126800	0.0000000

@pcseg2.gbs

