%mem=1000mw
%nprocs=12
# b3lyp/gen opt freq

oxalic acid, B3LYP/pcseg-2

0 1
C	-0.0546130	0.7713390	0.0000000
C	0.0546130	-0.7713390	0.0000000
O	1.1236780	1.3764990	0.0000000
O	-1.1236780	-1.3764990	0.0000000
O	-1.1236780	1.3220310	0.0000000
O	1.1236780	-1.3220310	0.0000000
H	1.8126910	0.6868510	0.0000000
H	-1.8126910	-0.6868510	0.0000000

@pcseg2.gbs

