%mem=1000mw
%nprocs=12
# b3lyp/gen opt freq

cyclopropenone, B3LYP/pcseg-2

0 1
C         -0.278060       0.000000       0.000000
O         -1.477832       0.000000       0.000000
C          0.987641      -0.671447       0.000000
C          0.987641       0.671447       0.000000
H          1.622855      -1.547720       0.000000
H          1.622855       1.547720       0.000000

@pcseg2.gbs

