%mem=1000mw
%nprocs=12
# b3lyp/gen opt freq

cyclopropenyl, B3LYP/pcseg-2

0 2
C	-0.0366320	0.8887590	0.0000000
H	0.7409140	1.6551080	0.0000000
C	-0.0366320	-0.4184040	0.6554490
C	-0.0366320	-0.4184040	-0.6554490
H	-0.0407700	-0.9834070	1.5725950
H	-0.0407700	-0.9834070	-1.5725950

@pcseg2.gbs

