%mem=1000mw
%nprocs=12
# b3lyp/gen opt freq

carbon suboxide, B3LYP/pcseg-2

0 1
C	0.0000000	0.0000000	0.0000000
C	0.0000000	0.0000000	1.2722740
C	0.0000000	0.0000000	-1.2722740
O	0.0000000	0.0000000	2.4347830
O	0.0000000	0.0000000	-2.4347830

@pcseg2.gbs

