%chk=c6h5.chk
%mem=500mw
%nprocs=4
# b3lyp/gen opt freq CPHF(Grid=OneStep)

phenyl, B3LYP/pcseg-2

0 2
C      -0.000000     0.000000     1.391478
C      -0.000000     1.221082     0.769021
C      -0.000000    -1.221082     0.769021
C      -0.000000     1.209044    -0.629752
C      -0.000000    -1.209044    -0.629752
C       0.000000    -0.000000    -1.318545
H      -0.000000     2.152621     1.318905
H      -0.000000    -2.152621     1.318905
H      -0.000000     2.145154    -1.173312
H      -0.000000    -2.145154    -1.173312
H       0.000000    -0.000000    -2.400014

@pcseg2.gbs

--Link1--
%chk=c6h5.chk
%mem=500mw
%nprocs=4
# rohf/gen geom=check guess=check

phenyl, ROHF/cc-pVTZ-F12

0 2

@ccpvtz-f12.gbs
