%mem=1000mw
%nprocs=12
# b3lyp/gen opt freq

tropyl, B3LYP/pcseg-2

0 2
C	0.0000000	0.0000000	1.6251380
C	0.0000000	1.2624220	0.9943040
C	0.0000000	-1.2624220	0.9943040
C	0.0000000	1.5858930	-0.3423610
C	0.0000000	-1.5858930	-0.3423610
C	0.0000000	0.6798360	-1.4645700
C	0.0000000	-0.6798360	-1.4645700
H	0.0000000	0.0000000	2.7098740
H	0.0000000	2.1180990	1.6680480
H	0.0000000	-2.1180990	1.6680480
H	0.0000000	2.6469590	-0.5716220
H	0.0000000	-2.6469590	-0.5716220
H	0.0000000	1.1376400	-2.4510160
H	0.0000000	-1.1376400	-2.4510160

@pcseg2.gbs

