%mem=1000mw
%nprocs=12
# b3lyp/gen opt freq CPHF(Grid=OneStep)

tropyl, B3LYP/pcseg-2, Cs symm to get a minimum

0 2
C     0.000000    0.230000    1.620647
C     0.000000    1.118343    1.123967
C     0.000000   -1.408343    0.863967
C     0.000000    1.587941   -0.480080
C    -0.000000   -1.577941   -0.200080
C     0.000000    0.702693   -1.384249
C    -0.000000   -0.652693   -1.544249
H     0.000000    0.145000    2.701909
H     0.000000    2.019051    1.748725
H     0.000000   -2.199051    1.598725
H     0.000000    2.636224   -0.672746
H     0.000000   -2.636224   -0.502746
H     0.000000    1.175978   -2.376699
H    -0.000000   -1.135978   -2.496699

@pcseg2.gbs

