%chk=c7h7.chk
%mem=500mw
%nprocs=4
# b3lyp/gen opt freq CPHF(Grid=OneStep)

tropyl, B3LYP/pcseg-2

0 2
C      -0.730399    -1.440086     0.000000
C      -1.568384    -0.374903    -0.000000
C       0.716468    -1.451137     0.000000
C      -1.250007     1.029698    -0.000000
C       1.563283    -0.378672     0.000000
C       0.000000     1.607284    -0.000000
C       1.269019     1.007779     0.000000
H      -1.196006    -2.418542     0.000000
H      -2.628407    -0.602289    -0.000000
H       1.173911    -2.432190     0.000000
H      -2.097067     1.702924    -0.000000
H       2.621276    -0.619332     0.000000
H       0.007924     2.692492    -0.000000
H       2.118482     1.677154     0.000000

@pcseg2.gbs

--Link1--
%chk=c7h7.chk
%mem=500mw
%nprocs=4
# rohf/gen geom=check guess=check

tropyl, ROHF/cc-pVTZ-F12

0 2

@ccpvtz-f12.gbs
