%mem=500mw
# b3lyp/gen opt freq

carbon atom, B3LYP/pcseg-2

0 3
C

@pcseg2.gbs

