%mem=1000mw
%nprocs=12
# b3lyp/gen opt freq

dichlorovinylidene, B3LYP/pcseg-2

0 1
C          0.000000      -0.455470       0.000000
C          0.000000      -1.781505       0.000000
Cl        -1.506018       0.383823       0.000000
Cl         1.506018       0.383823       0.000000

@pcseg2.gbs

