%mem=1000mw
%nprocs=12
# b3lyp/gen opt freq CPHF(Grid=OneStep)

fluoroethynyl, B3LYP/pcseg-2

0 2
C     0.430000    0.000000   -0.175413
C    -0.215000    0.000000   -1.459764
F    -0.135000    0.000000    1.090118

@pcseg2.gbs

