%mem=1000mw
%nprocs=12
# b3lyp/gen opt freq CPHF(Grid=OneStep)

vinylidene, B3LYP/pcseg-2

0 1
C	0.0000000	0.0000000	-0.4772290
C	0.0000000	0.0000000	0.8222840
H	0.0000000	0.9346760	-1.0351640
H	0.0000000	-0.9346760	-1.0351640

@pcseg2.gbs

