%mem=1000mw
%nprocs=12
# b3lyp/gen opt freq

ethynyl, B3LYP/pcseg-2

0 2
C	0.0000000	0.0000000	-0.4737810
C	0.0000000	0.0000000	0.7299840
H	0.0000000	0.0000000	-1.5372130

@pcseg2.gbs

