%mem=1000mw
%nprocs=12
# b3lyp/gen opt freq

phosgene, B3LYP/pcseg-2

0 1
O	0.0000000	0.0000000	1.6800390
C	0.0000000	0.0000000	0.5050980
Cl	0.0000000	1.4563560	-0.4844380
Cl	0.0000000	-1.4563560	-0.4844380

@pcseg2.gbs

