%mem=1000mw
%nprocs=12
# b3lyp/gen opt freq

dichloromethylene, B3LYP/pcseg-2

0 1
C	0.0000000	0.0000000	0.8403400
Cl	0.0000000	1.4099490	-0.1482950
Cl	0.0000000	-1.4099490	-0.1482950

@pcseg2.gbs

