%mem=1000mw
%nprocs=12
# b3lyp/gen opt freq

trichloromethyl, B3LYP/pcseg-2

0 2
C	0.0000000	0.0000000	0.2742200
Cl	0.0000000	1.6959460	-0.0322610
Cl	1.4687330	-0.8479730	-0.0322610
Cl	-1.4687330	-0.8479730	-0.0322610

@pcseg2.gbs

