%mem=500mw
%nprocs=6
# b3lyp/gen opt freq

CCl4, B3LYP/pcseg-2

0 1
C
Cl 1 r
Cl 1 r 2 a
Cl 1 r 2 a 3 120.
Cl 1 r 2 a 3 -120.

r 1.7
a 109.4712

@pcseg2.gbs

