%mem=1000mw
%nprocs=12
# b3lyp/gen opt freq

chlormethylidyne, B3LYP/pcseg-2

0 2
C	0.0000000	0.0000000	-1.2374510
Cl	0.0000000	0.0000000	0.4367470

@pcseg2.gbs

