%mem=500mw
%nprocs=4
# b3lyp/gen opt freq

fluoromethylidyne, B3LYP/pcseg-2

0 2
C
F 1 r

r 1.3

@pcseg2.gbs

