%mem=1000mw
%nprocs=12
# b3lyp/gen opt freq

difluoromethylene, B3LYP/pcseg-2

0 1
C	0.0000000	0.0000000	0.5983110
F	0.0000000	1.0295860	-0.1994370
F	0.0000000	-1.0295860	-0.1994370

@pcseg2.gbs

