%mem=1000mw
%nprocs=12
# b3lyp/gen opt freq

dichlorodifluoromethane, B3LYP/pcseg-2

0 1
C	0.0000000	0.0000000	0.3531440
F	0.0000000	1.0755720	1.1224920
F	0.0000000	-1.0755720	1.1224920
Cl	1.4732900	0.0000000	-0.6565800
Cl	-1.4732900	0.0000000	-0.6565800

@pcseg2.gbs

