%mem=1000mw
%nprocs=12
# b3lyp/gen opt freq

carbonyl difluoride, B3LYP/pcseg-2

0 1
O	0.0000000	0.0000000	1.3157980
C	0.0000000	0.0000000	0.1410860
F	0.0000000	1.0604220	-0.6318280
F	0.0000000	-1.0604220	-0.6318280

@pcseg2.gbs

