%chk=cf3.chk
%mem=500mw
%nprocs=4
# b3lyp/gen opt freq CPHF(Grid=OneStep)

CF3, B3LYP/pcseg-2

0 2
C       0.000000     0.000000     0.325007
F       0.000000     1.260054    -0.072224
F       1.091239    -0.630027    -0.072224
F      -1.091239    -0.630027    -0.072224

@pcseg2.gbs

--Link1--
%chk=cf3.chk
%mem=500mw
%nprocs=4
# rohf/gen geom=check guess=check

CF3, ROHF/cc-pVTZ-F12

0 2

@ccpvtz-f12.gbs
