%mem=500mw
%nprocs=8
# b3lyp/gen opt freq

CF3Cl, B3LYP/pcseg-2

0 1
C
Cl 1 1.7
F 1 r 2 a
F 1 r 2 a 3 120.
F 1 r 2 a 3 -120.

r 1.3
a 109.

@pcseg2.gbs

