%mem=500mw
# b3lyp/gen opt freq

CF4, B3LYP/pcseg-2

0 1
C
F 1 r
F 1 r 2 a
F 1 r 2 a 3 120.
F 1 r 2 a 3 -120.

r 1.4
a 109.4712

@pcseg2.gbs

