%mem=1000mw
%nprocs=12
# b3lyp/gen opt freq

trichlorofluoromethane, B3LYP/pcseg-2

0 1
C	0.0000000	0.0000000	0.2499330
F	0.0000000	0.0000000	1.5870900
Cl	0.0000000	1.6979270	-0.3094790
Cl	1.4704480	-0.8489640	-0.3094790
Cl	-1.4704480	-0.8489640	-0.3094790

@pcseg2.gbs

