%mem=1000mw
%nprocs=12
# b3lyp/gen opt freq

methylene, B3LYP/pcseg-2

0 3
C	0.0000000	0.0000000	0.1026490
H	0.0000000	0.9963620	-0.3079480
H	0.0000000	-0.9963620	-0.3079480

@pcseg2.gbs

