%chk=ch2clchcl2.chk
%mem=500mw
%nprocs=4
# b3lyp/gen opt freq CPHF(Grid=OneStep)

1,1,2-trichloroethane, B3LYP/pcseg-2

0 1
C       0.668004    -0.826732     0.403470
C      -0.409913    -0.078172    -0.356090
Cl      2.312326    -0.300407    -0.094299
H       0.571183    -0.663718     1.472096
H       0.592570    -1.886664     0.180840
Cl     -1.987339    -0.875525    -0.015816
Cl     -0.469250     1.652897     0.080145
H      -0.259823    -0.128597    -1.427731

@pcseg2.gbs

--Link1--
%chk=ch2clchcl2.chk
%mem=500mw
%nprocs=4
# rohf/gen geom=check guess=check

1,1,2-trichloroethane, ROHF/cc-pVTZ-F12

0 1

@ccpvtz-f12.gbs
