%mem=1000mw
%nprocs=12
# b3lyp/gen opt freq

1,1,1,2-tetrachloroethane, B3LYP/pcseg-2

0 1
C	0.2674340	0.2796050	0.0000000
C	-1.2559760	0.3743710	0.0000000
Cl	-2.0802560	-1.2151810	0.0000000
Cl	0.8713330	1.9816530	0.0000000
Cl	0.8713330	-0.5520920	1.4623120
Cl	0.8713330	-0.5520920	-1.4623120
H	-1.5711750	0.9086210	0.8904320
H	-1.5711750	0.9086210	-0.8904320

@pcseg2.gbs

