%mem=1000mw
%nprocs=12
# b3lyp/gen opt freq

1,1-dichloroethylene, B3LYP/pcseg-2

0 1
C	0.0000000	0.0000000	1.7498310
C	0.0000000	0.0000000	0.4241180
H	0.0000000	0.9316610	2.3003140
H	0.0000000	-0.9316610	2.3003140
Cl	0.0000000	1.4583910	-0.5189510
Cl	0.0000000	-1.4583910	-0.5189510

@pcseg2.gbs

