%mem=500mw
%nprocs=8
# b3lyp/gen opt freq

CH2Cl2, B3LYP/pcseg-2

0 1
C	0.0000000	0.0000000	0.7690320
H	-0.9002820	0.0000000	1.3770090
H	0.9002820	0.0000000	1.3770090
Cl	0.0000000	1.4885440	-0.2167120
Cl	0.0000000	-1.4885440	-0.2167120

@pcseg2.gbs

