%chk=ch2cn.chk
%mem=500mw
%nprocs=4
# b3lyp/gen opt freq CPHF(Grid=OneStep)

cyanomethyl, B3LYP/pcseg-2

0 2
C      -0.000000     0.000000     0.187275
N      -0.000000     0.000000     1.352970
C       0.000000    -0.000000    -1.188613
H       0.000000     0.932688    -1.731380
H      -0.000000    -0.932688    -1.731380

@pcseg2.gbs

--Link1--
%chk=ch2cn.chk
%mem=500mw
%nprocs=4
# rohf/gen geom=check guess=check

cyanomethyl, ROHF/cc-pVTZ-F12

0 2

@ccpvtz-f12.gbs
