%chk=ch2cc2h2.chk
%mem=500mw
%nprocs=4
# b3lyp/gen opt freq CPHF(Grid=OneStep)

3-methylenecyclopropene, B3LYP/pcseg-2

0 1
C       0.000000     0.000000     1.586774
C       0.000000     0.000000     0.260951
C       0.000000     0.656550    -1.016316
C      -0.000000    -0.656550    -1.016316
H       0.000000     0.925867     2.143093
H      -0.000000    -0.925867     2.143093
H       0.000000     1.567562    -1.588370
H      -0.000000    -1.567562    -1.588370

@pcseg2.gbs

--Link1--
%chk=ch2cc2h2.chk
%mem=500mw
%nprocs=4
# rohf/gen geom=check guess=check

3-methylenecyclopropene, ROHF/cc-pVTZ-F12

0 1

@ccpvtz-f12.gbs
