%mem=1000mw
%nprocs=12
# b3lyp/gen opt freq

propadienone, B3LYP/pcseg-2

0 1
C	0.9150470	-1.5806730	0.0000000
C	0.0000000	-0.6296860	0.0000000
C	-0.3147780	0.6215920	0.0000000
O	-0.7784250	1.6918430	0.0000000
H	1.9823970	-1.3698520	0.0000000
H	0.6433930	-2.6322900	0.0000000

@pcseg2.gbs

