%mem=1000mw
%nprocs=12
# b3lyp/gen opt freq

chloromethyl, B3LYP/pcseg-2

0 2
C	0.0000000	0.0000000	-1.1266810
Cl	0.0000000	0.0000000	0.5885960
H	0.0000000	0.9562640	-1.6230220
H	0.0000000	-0.9562640	-1.6230220

@pcseg2.gbs

