%mem=1000mw
%nprocs=12
# b3lyp/gen opt freq

chloroallene, B3LYP/pcseg-2

0 1
C         -1.227701      -0.183029       0.000000
C         -2.415143       0.348412       0.000000
C         -0.050160      -0.730291       0.000000
H         -2.934144       0.581446       0.926155
H         -2.934144       0.581446      -0.926155
H          0.126489      -1.797815       0.000000
Cl         1.432783       0.212154       0.000000

@pcseg2.gbs

