%chk=ch2cchchcch2.chk
%mem=500mw
%nprocs=4
# b3lyp/gen opt freq CPHF(Grid=OneStep)

biallenyl, B3LYP/pcseg-2

0 1
C       0.323381     0.656582     0.000000
C      -0.323381    -0.656582     0.000000
C      -0.323381     1.794766     0.000000
C       0.323381    -1.794766     0.000000
C      -0.963250     2.925263     0.000000
C       0.963250    -2.925263     0.000000
H       1.408260     0.672359     0.000000
H      -1.408260    -0.672359     0.000000
H      -1.241864     3.419236     0.924137
H      -1.241864     3.419236    -0.924137
H       1.241864    -3.419236    -0.924137
H       1.241864    -3.419236     0.924137

@pcseg2.gbs

--Link1--
%chk=ch2cchchcch2.chk
%mem=500mw
%nprocs=4
# rohf/gen geom=check guess=check

biallenyl, ROHF/cc-pVTZ-F12

0 1

@ccpvtz-f12.gbs
