%chk=ch2cchch2cch.chk
%mem=500mw
%nprocs=4
# b3lyp/gen opt freq CPHF(Grid=OneStep)

propargylallene, B3LYP/pcseg-2

0 1
C      -2.839065    -0.437777    -0.242565
C      -1.665863    -0.070478     0.182868
C      -0.490683     0.295078     0.602789
C       0.625777     0.773838    -0.307962
C       1.855425     0.002570    -0.147966
C       2.861165    -0.634240    -0.003162
H      -3.650031     0.272775    -0.348782
H      -3.047106    -1.468943    -0.502047
H      -0.269961     0.265799     1.664698
H       0.840163     1.825156    -0.090863
H       0.294860     0.729799    -1.346502
H       3.751535    -1.198531     0.119485

@pcseg2.gbs

--Link1--
%chk=ch2cchch2cch.chk
%mem=500mw
%nprocs=4
# rohf/gen geom=check guess=check

propargylallene, ROHF/cc-pVTZ-F12

0 1

@ccpvtz-f12.gbs
