%mem=1000mw
%nprocs=12
# b3lyp/gen opt freq CPHF(Grid=OneStep)

carboxymethyl, B3LYP/pcseg-2

0 2
C         -1.404781      -0.323872       0.000000
C         -0.020157       0.087056       0.000000
O          0.363735       1.241221       0.000000
O          0.838639      -0.968334       0.000000
H          1.727734      -0.585369       0.000000
H         -2.164956       0.444710       0.000000
H         -1.678845      -1.370518       0.000000

@pcseg2.gbs

