%chk=ch2cco.chk
%mem=500mw
%nprocs=4
# b3lyp/gen opt freq CPHF(Grid=OneStep)

propadienone, B3LYP/pcseg-2

0 1
C       0.865298     1.615347    -0.000000
C       0.000000     0.619966     0.000000
C      -0.297457    -0.633139     0.000000
O      -0.736064    -1.715252     0.000000
H       1.941565     1.457764    -0.000000
H       0.539898     2.651213    -0.000000

@pcseg2.gbs

--Link1--
%chk=ch2cco.chk
%mem=500mw
%nprocs=4
# rohf/gen geom=check guess=check

propadienone, ROHF/cc-pVTZ-F12

0 1

@ccpvtz-f12.gbs
