%mem=1000mw
%nprocs=12
# b3lyp/gen opt freq

1-cyanovinyl, B3LYP/pcseg-2

0 2
C         -1.907870      -0.021954       0.000000
C         -0.608873       0.045235       0.000000
C          0.718308       0.000958       0.000000
N          1.898787      -0.013268       0.000000
H         -2.531983       0.871867       0.000000
H         -2.436771      -0.976134       0.000000

@pcseg2.gbs

