%chk=ch2chnc.chk
%mem=500mw
%nprocs=4
# b3lyp/gen opt freq CPHF(Grid=OneStep)

isocyanoethylene, B3LYP/pcseg-2

0 1
C       1.313825     0.899187     0.000000
C       0.000000     0.711296     0.000000
N      -0.585299    -0.536178     0.000000
H       1.713260     1.901709     0.000000
H       2.006664     0.070670     0.000000
H      -0.704722     1.532040     0.000000
C      -1.133510    -1.569011     0.000000

@pcseg2.gbs

--Link1--
%chk=ch2chnc.chk
%mem=500mw
%nprocs=4
# rohf/gen geom=check guess=check

isocyanoethylene, ROHF/cc-pVTZ-F12

0 1

@ccpvtz-f12.gbs
