%chk=ch2cl2.chk
%mem=500mw
%nprocs=4
# b3lyp/gen opt freq CPHF(Grid=OneStep)

CH2Cl2, B3LYP/pcseg-2

0 1
C       0.000000    -0.000000     0.767760
H      -0.896665     0.000000     1.373349
H       0.896665    -0.000000     1.373349
Cl     -0.000000     1.487512    -0.216272
Cl     -0.000000    -1.487512    -0.216272

@pcseg2.gbs

--Link1--
%chk=ch2cl2.chk
%mem=500mw
%nprocs=4
# rohf/gen geom=check guess=check

CH2Cl2, ROHF/cc-pVTZ-F12

0 1

@ccpvtz-f12.gbs
