%mem=500mw
%nprocs=4
# b3lyp/gen opt freq 

propargyl, B3LYP/pcseg-2

0 2
C	0.0000000	0.0000000	-1.2496440
C	0.0000000	0.0000000	0.1147410
C	0.0000000	0.0000000	1.3373990
H	0.0000000	0.9298430	-1.8070390
H	0.0000000	-0.9298430	-1.8070390
H	0.0000000	0.0000000	2.3991050

@pcseg2.gbs

