%mem=1000mw
%nprocs=12
# b3lyp/gen opt freq

propargylallene, B3LYP/pcseg-2

0 1
C         -2.861850      -0.446442      -0.262664
C         -1.691459      -0.067269       0.162982
C         -0.520859       0.311974       0.588705
C          0.602486       0.783809      -0.322130
C          1.828699       0.010592      -0.143487
C          2.831333      -0.630359       0.023618
H         -3.680451       0.257924      -0.383394
H         -3.067124      -1.483735      -0.513027
H         -0.301981       0.297051       1.654347
H          0.814841       1.842072      -0.115057
H          0.273058       0.731517      -1.365039
H          3.719023      -1.196013       0.162260

@pcseg2.gbs

