%mem=1000mw
%nprocs=12
# b3lyp/gen opt freq

chloromethanol, B3LYP/pcseg-2

0 1
C          0.646375      -0.615674       0.028620
O          1.627337       0.338711      -0.063491
Cl        -1.052674       0.102027      -0.005073
H          0.710213      -1.257002      -0.848332
H          0.670151      -1.200077       0.951767
H          1.621343       0.872127       0.739459

@pcseg2.gbs

