%mem=1000mw
%nprocs=12
# b3lyp/gen opt freq

butadienylacetylene, B3LYP/pcseg-2

0 1
C          0.625173      -0.565102       0.000000
C         -0.489972       0.193590       0.000000
C          1.942710      -0.055883       0.000000
C          3.078940       0.348873       0.000000
H          4.075604       0.714665       0.000000
H          0.525584      -1.649580       0.000000
H         -0.391647       1.276704       0.000000
C         -1.831759      -0.347247       0.000000
C         -2.944158       0.397182       0.000000
H         -1.914004      -1.433100       0.000000
H         -2.900086       1.482200       0.000000
H         -3.931153      -0.050493       0.000000

@pcseg2.gbs

