%mem=1000mw
%nprocs=12
# b3lyp/gen opt freq

3-methylenecyclopropene, B3LYP/pcseg-2

0 1
C         -1.609093       0.000000       0.000000
C         -0.284314       0.000000       0.000000
C          0.997157       0.658305       0.000000
C          0.997157      -0.658305       0.000000
H         -2.168278       0.927488       0.000000
H         -2.168278      -0.927488       0.000000
H          1.567542       1.572404       0.000000
H          1.567542      -1.572404       0.000000

@pcseg2.gbs

