%mem=1000mw
%nprocs=12
# b3lyp/gen opt freq

chloromethoxyl, B3LYP/pcseg-2

0 2
C          0.701017      -0.536568       0.000000
O          1.651171       0.361255       0.000000
Cl        -1.040374       0.087330       0.000000
H          0.773021      -1.187337       0.890275
H          0.773021      -1.187337      -0.890275

@pcseg2.gbs

