%chk=ch2clccl3.chk
%mem=500mw
%nprocs=4
# b3lyp/gen opt freq CPHF(Grid=OneStep)

1,1,1,2-tetrachloroethane, B3LYP/pcseg-2

0 1
C       0.269571     0.278439    -0.000000
C      -1.255558     0.373525     0.000000
Cl     -2.082765    -1.211210     0.000000
Cl      0.871810     1.978650    -0.000000
Cl      0.871810    -0.552226     1.460618
Cl      0.871810    -0.552226    -1.460618
H      -1.569680     0.908712     0.890162
H      -1.569680     0.908712    -0.890162

@pcseg2.gbs

--Link1--
%chk=ch2clccl3.chk
%mem=500mw
%nprocs=4
# rohf/gen geom=check guess=check

1,1,1,2-tetrachloroethane, ROHF/cc-pVTZ-F12

0 1

@ccpvtz-f12.gbs
