%mem=1000mw
%nprocs=12
# b3lyp/gen opt freq

biallenyl, B3LYP/pcseg-2

0 1
C          0.546213      -0.488043       0.000000
C         -0.546213       0.488043       0.000000
C          1.818161      -0.171278       0.000000
C         -1.818161       0.171278       0.000000
C          3.079614       0.143234       0.000000
C         -3.079614      -0.143234       0.000000
H          0.265035      -1.539200       0.000000
H         -0.265035       1.539200       0.000000
H          3.634927       0.280303       0.925019
H          3.634927       0.280303      -0.925019
H         -3.634927      -0.280303      -0.925019
H         -3.634927      -0.280303       0.925019

@pcseg2.gbs

