%chk=ch2ccchchch2.chk
%mem=500mw
%nprocs=4
# b3lyp/gen opt freq CPHF(Grid=OneStep)

1,2,3,5-hexatetraene, B3LYP/pcseg-2

0 1
C       1.514602     2.789640    -0.000000
C       0.741283     1.726084    -0.000000
C       0.000000     0.708464    -0.000000
C      -0.784169    -0.358982     0.000000
C      -0.307092    -1.726451     0.000000
C      -1.112939    -2.793352     0.000000
H       2.593839     2.702172    -0.000000
H       1.097760     3.789023    -0.000000
H      -1.861319    -0.213254     0.000000
H      -2.190639    -2.688650     0.000000
H      -0.717836    -3.798922     0.000000
H       0.768080    -1.862786    -0.000000

@pcseg2.gbs

--Link1--
%chk=ch2ccchchch2.chk
%mem=500mw
%nprocs=4
# rohf/gen geom=check guess=check

1,2,3,5-hexatetraene, ROHF/cc-pVTZ-F12

0 1

@ccpvtz-f12.gbs
