%mem=1000mw
%nprocs=12
# b3lyp/gen opt freq

1,1-difluoroethylene, B3LYP/pcseg-2

0 1
C	0.0000000	0.0000000	1.3815000
C	0.0000000	0.0000000	0.0662860
H	0.0000000	0.9338550	1.9175310
H	0.0000000	-0.9338550	1.9175310
F	0.0000000	1.0787310	-0.6956540
F	0.0000000	-1.0787310	-0.6956540

@pcseg2.gbs

