%mem=500mw
%nprocs=8
# b3lyp/gen opt freq

CH2F2, B3LYP/pcseg-2

0 1
C	0.0000000	0.0000000	0.4960240
H	-0.9091490	0.0000000	1.1110350
H	0.9091490	0.0000000	1.1110350
F	0.0000000	1.0999220	-0.2887900
F	0.0000000	-1.0999220	-0.2887900

@pcseg2.gbs

