%mem=1000mw
%nprocs=12
# b3lyp/gen opt freq

chlorofluoromethane, B3LYP/pcseg-2

0 1
C	0.0000000	0.8165980	0.0000000
F	1.3609310	0.7727210	0.0000000
Cl	-0.6794820	-0.8510000	0.0000000
H	-0.3485910	1.3064580	0.9067010
H	-0.3485910	1.3064580	-0.9067010

@pcseg2.gbs

