%mem=1000mw
%nprocs=12
# b3lyp/gen opt freq

methylene amidogen, B3LYP/pcseg-2

0 2
C	0.0000000	0.0000000	-0.5031530
N	0.0000000	0.0000000	0.7406450
H	0.0000000	0.9347000	-1.0827970
H	0.0000000	-0.9347000	-1.0827970

@pcseg2.gbs

