%mem=1000mw
%nprocs=12
# b3lyp/gen opt=calcall 

oxaziridine, B3LYP/pcseg-2

0 1
C	0.6875680	-0.3331160	0.0170190
N	-0.7331320	-0.4466370	-0.1608040
O	-0.0340060	0.8620850	0.0203670
H	1.1367880	-0.6211260	0.9679840
H	1.2884900	-0.5323710	-0.8678770
H	-1.1467180	-0.6180250	0.7604720

@pcseg2.gbs

