%mem=1000mw
%nprocs=12
# b3lyp/gen opt freq

formaldoxime, B3LYP/pcseg-2

0 1
C         -1.147622       0.231610       0.000000
N         -0.118554      -0.512793       0.000000
O          1.057017       0.236727       0.000000
H         -2.110417      -0.266730       0.000000
H         -1.093232       1.320012       0.000000
H          1.739779      -0.443117       0.000000

@pcseg2.gbs

