%mem=500mw
# b3lyp/gen opt freq

CH2O, B3LYP/pcseg-2

0 1
C
O 1 1.3
H 1 1. 2 a
H 1 1. 2 a 3 180.

a=120.

@pcseg2.gbs

