%mem=500mw
%nprocs=4
# b3lyp/gen opt freq 

hydroxymethyl, B3LYP/pcseg-2

0 2
C	-0.6832990	0.0282260	-0.0732360
O	0.6698020	-0.1253170	0.0251130
H	-1.2289460	-0.8880860	0.1149130
H	-1.1203940	0.9866530	0.1937520
H	1.0907150	0.7346100	-0.0701520

@pcseg2.gbs

