%mem=1000mw
%nprocs=12
# b3lyp/gen opt freq

methanediol, B3LYP/pcseg-2

0 1
C          0.000000      -0.544646       0.000000
O          1.169661       0.230299       0.046110
O         -1.169661       0.230299      -0.046110
H         -0.043715      -1.180277      -0.894438
H          0.043715      -1.180277       0.894438
H          1.186890       0.767778      -0.754117
H         -1.186890       0.767778       0.754117

@pcseg2.gbs

