%mem=1000mw
%nprocs=12
# b3lyp/gen opt freq

hydroperoxymethyl, B3LYP/pcseg-2

0 2
C         -1.167016       0.315400       0.057071
O         -0.117875      -0.540565      -0.036828
H         -1.080806       1.266275      -0.458954
H         -2.103240      -0.229253       0.112047
O          1.111246       0.223124      -0.041274
H          1.313987       0.245591       0.906917

@pcseg2.gbs

