%mem=1000mw
%nprocs=12
# b3lyp/gen opt=calcfc freq CPHF(Grid=OneStep)

hydroperoxymethyl, B3LYP/pcseg-2

0 2
C          -1.249410     0.388427    -0.003203
O          -0.622937    -0.636840     0.002493
H          -0.752924     1.369923    -0.040246
H          -2.353039     0.381677     0.025378
O           1.720623     0.219453     0.009886
H           1.820938    -0.743066    -0.064940

@pcseg2.gbs

