%chk=ch2oo.chk
%mem=500mw
%nprocs=4
# b3lyp/gen opt freq CPHF(Grid=OneStep)

dioxymethyl (H2C-O-O), B3LYP/pcseg-2

0 1
O       0.000000     0.457219    -0.000000
O      -1.178012    -0.198855    -0.000000
C       1.070030    -0.196871     0.000000
H       1.028946    -1.279648     0.000000
H       1.974970     0.393966     0.000000

@pcseg2.gbs

--Link1--
%chk=ch2oo.chk
%mem=500mw
%nprocs=4
# rohf/gen geom=check guess=check

dioxymethyl (H2C-O-O), ROHF/cc-pVTZ-F12

0 1

@ccpvtz-f12.gbs
