%mem=500mw
%nprocs=4
# b3lyp/gen opt freq

dioxymethyl (H2C-O-O), B3LYP/pcseg-2

0 1
O
O 1 r
C 1 rc 2 a
H 3 r1 1 a1 2 0.
H 3 r2 1 a2 2 180.

r 1.3
rc 1.3
r1 1.
r2 1.
a1 120.
a2 120.
a 120.

@/home/irikura/basis/pcseg2.gbs

