%chk=ch3cho.chk
%mem=500mw
%nprocs=4
# b3lyp/gen opt freq CPHF(Grid=OneStep)

acetaldehyde, B3LYP/pcseg-2

0 1
C       0.000000     0.459654     0.000000
C      -0.929365    -0.718665     0.000000
O       1.201226     0.386631     0.000000
H      -0.498079     1.451681     0.000000
H      -0.373681    -1.653181     0.000000
H      -1.580932    -0.668740     0.876244
H      -1.580932    -0.668740    -0.876244

@pcseg2.gbs

--Link1--
%chk=ch3cho.chk
%mem=500mw
%nprocs=4
# rohf/gen geom=check guess=check

acetaldehyde, ROHF/cc-pVTZ-F12

0 1

@ccpvtz-f12.gbs
