%chk=ch3cchch2ch2.chk
%mem=500mw
%nprocs=4
# b3lyp/gen opt freq CPHF(Grid=OneStep)

2-methylallyl, B3LYP/pcseg-2

0 2
C       1.253328     0.688973     0.000000
C       0.000000     0.092220     0.000000
C      -0.089953    -1.419404     0.000000
C      -1.155311     0.847450     0.000000
H      -2.132961     0.387199     0.000000
H      -1.113918     1.928194     0.000000
H       2.160057     0.100397     0.000000
H       1.357706     1.765070     0.000000
H      -1.124638    -1.758141     0.000000
H       0.402684    -1.839076     0.878665
H       0.402684    -1.839076    -0.878665

@pcseg2.gbs

--Link1--
%chk=ch3cchch2ch2.chk
%mem=500mw
%nprocs=4
# rohf/gen geom=check guess=check

2-methylallyl, ROHF/cc-pVTZ-F12

0 2

@ccpvtz-f12.gbs
