%mem=1000mw
%nprocs=12
# b3lyp/gen opt(cart,calcfc) freq

2-butyne, B3LYP/pcseg-2

0 1
C	0.0000000	0.0000000	0.6018160
C	0.0000000	0.0000000	-0.6018160
C	0.0000000	0.0000000	2.0580230
C	0.0000000	0.0000000	-2.0580230
H	0.0000000	1.0203180	2.4578660
H	-0.8836210	-0.5101590	2.4578660
H	0.8836210	-0.5101590	2.4578660
H	0.0000000	1.0203180	-2.4578660
H	0.8836210	-0.5101590	-2.4578660
H	-0.8836210	-0.5101590	-2.4578660

@pcseg2.gbs

