%mem=1000mw
%nprocs=12
# b3lyp/gen opt freq

pyruvic acid, B3LYP/pcseg-2

0 1
C          0.747790      -0.194032       0.000000
C         -0.760083       0.159874       0.000000
O          1.158621      -1.322021       0.000000
O          1.518232       0.894548       0.000000
H          0.906504       1.655747       0.000000
O         -1.064848       1.333071       0.000000
C         -1.723146      -0.987554       0.000000
H         -2.749460      -0.621156       0.000000
H         -1.538578      -1.620866       0.873926
H         -1.538578      -1.620866      -0.873926

@pcseg2.gbs

