%mem=1000mw
%nprocs=12
# b3lyp/gen opt freq

1-methylallyl, B3LYP/pcseg-2

0 2
C	1.3550470	-1.4182320	0.0000000
C	0.1497550	-0.7441210	0.0000000
C	0.0000000	0.6314770	0.0000000
C	-1.3126300	1.3406330	0.0000000
H	2.2971240	-0.8829120	0.0000000
H	1.3962070	-2.4988340	0.0000000
H	-0.7597580	-1.3421440	0.0000000
H	0.8963690	1.2464240	0.0000000
H	-2.1486900	0.6386520	0.0000000
H	-1.4171430	1.9901410	0.8767610
H	-1.4171430	1.9901410	-0.8767610

@pcseg2.gbs

