%chk=ch3ccch3.chk
%mem=500mw
%nprocs=4
# b3lyp/gen opt=cart freq CPHF(Grid=OneStep)

2-butyne, B3LYP/pcseg-2

0 1
C       0.000000     0.000000     0.600425
C       0.000000     0.000000    -0.600425
C       0.000000     0.000000     2.056907
C       0.000000     0.000000    -2.056907
H       0.000000     1.017547     2.451532
H      -0.881221    -0.508773     2.451532
H       0.881221    -0.508773     2.451532
H       0.000000     1.017547    -2.451532
H       0.881221    -0.508773    -2.451532
H      -0.881221    -0.508773    -2.451532

@pcseg2.gbs

--Link1--
%chk=ch3ccch3.chk
%mem=500mw
%nprocs=4
# rohf/gen geom=check guess=check

2-butyne, ROHF/cc-pVTZ-F12

0 1

@ccpvtz-f12.gbs
