%mem=1000mw
%nprocs=12
# b3lyp/gen opt freq

methylketene, B3LYP/pcseg-2

0 1
C	-0.7646070	0.1263290	-0.0000070
C	0.4674770	0.5696700	0.0000880
C	1.6825210	-0.3304010	-0.0001790
O	-1.8626750	-0.2684740	-0.0000650
H	0.5836280	1.6480370	0.0003630
H	1.4168280	-1.3568990	-0.2638570
H	2.4305830	0.0157540	-0.7221950
H	2.1580180	-0.3526950	0.9868030

@pcseg2.gbs

