%mem=1000mw
%nprocs=12
# b3lyp/gen opt freq

hydroxyacetone, B3LYP/pcseg-2

0 1
C         -0.606883       0.068819       0.000000
C          0.744743       0.786679       0.000000
C         -0.592223      -1.442138       0.000000
O         -1.621531       0.725360       0.000000
O          1.808033      -0.145433       0.000000
H          0.760366       1.441531       0.884816
H          0.760366       1.441531      -0.884816
H         -1.615775      -1.817547       0.000000
H         -0.046407      -1.811880       0.874102
H         -0.046407      -1.811880      -0.874102
H          2.637946       0.339396       0.000000

@pcseg2.gbs

