%mem=1000mw
%nprocs=12
# b3lyp/gen opt freq symm=loose

1,1,1-trichloroethane, B3LYP/pcseg-2

0 1
 C     1.82608323   0.00000000   0.00000000
 C     0.31207723   0.00000000   0.00000000
 H     2.19004023  -0.88773603  -0.51253464
 H     2.19004023   0.00000000   1.02506927
 H     2.19004023   0.88773603  -0.51253464
 Cl   -0.30693377   1.46159653   0.84385315
 Cl   -0.30693377   0.00000000  -1.68770630
 Cl   -0.30693377  -1.46159653   0.84385315

@pcseg2.gbs

