%mem=500mw
%nprocs=4
# b3lyp/gen opt freq

2-butynyl, B3LYP/pcseg-2

0 2
C         -2.000569       0.000000       0.002514
C         -0.548726       0.000000      -0.006568
C          0.676401       0.000000      -0.000855
C          2.040648       0.000000       0.002223
H         -2.393160       0.000000       1.027729
H         -2.404741       0.885568      -0.501353
H         -2.404741      -0.885568      -0.501353
H          2.602606      -0.927437       0.003477
H          2.602606       0.927437       0.003477

@pcseg2.gbs

