%chk=ch3cn.chk
%mem=500mw
%nprocs=4
# b3lyp/gen opt freq CPHF(Grid=OneStep)

acetonitrile, B3LYP/pcseg-2

0 1
C       0.000000     0.000000    -1.174026
C       0.000000     0.000000     0.280660
N       0.000000     0.000000     1.429968
H       0.000000     1.022382    -1.549861
H       0.885409    -0.511191    -1.549861
H      -0.885409    -0.511191    -1.549861

@pcseg2.gbs

--Link1--
%chk=ch3cn.chk
%mem=500mw
%nprocs=4
# rohf/gen geom=check guess=check

acetonitrile, ROHF/cc-pVTZ-F12

0 1

@ccpvtz-f12.gbs
