%chk=ch3cocooh.chk
%mem=500mw
%nprocs=4
# b3lyp/gen opt freq CPHF(Grid=OneStep)

pyruvic acid, B3LYP/pcseg-2

0 1
C       0.033014    -0.818012     0.000000
C       0.000000     0.733783     0.000000
O      -0.955292    -1.495074     0.000000
O       1.274824    -1.303527     0.000000
H       1.879831    -0.540049     0.000000
O       1.059517     1.318078     0.000000
C      -1.342537     1.385442     0.000000
H      -1.233507     2.465551     0.000000
H      -1.910791     1.055702     0.871183
H      -1.910791     1.055702    -0.871183

@pcseg2.gbs

--Link1--
%chk=ch3cocooh.chk
%mem=500mw
%nprocs=4
# rohf/gen geom=check guess=check

pyruvic acid, ROHF/cc-pVTZ-F12

0 1

@ccpvtz-f12.gbs
