%mem=500mw
%nprocs=4
# b3lyp/gen opt freq 

acetaldehyde, B3LYP/pcseg-2

0 1
C	0.0000000	0.4599650	0.0000000
C	-0.9291870	-0.7185370	0.0000000
O	1.2008990	0.3861590	0.0000000
H	-0.4959910	1.4533550	0.0000000
H	-0.3737070	-1.6532670	0.0000000
H	-1.5811850	-0.6689660	0.8761500
H	-1.5811850	-0.6689660	-0.8761500

@pcseg2.gbs

