%mem=500mw
%nprocs=4
# b3lyp/gen opt freq Int(Grid=UltraFine)

2-butynyl, B3LYP/pcseg-2, Cs symm

0 2
C         -1.999078       0.000000       0.002400
C         -0.547763       0.000000      -0.006288
C          0.674431       0.000000      -0.001145
C          2.039576       0.000000       0.002293
H         -2.386678       0.000000       1.025269
H         -2.398676       0.883517      -0.499883
H         -2.398676      -0.883517      -0.499883
H          2.596808      -0.926502       0.003561
H          2.596808       0.926502       0.003561

@pcseg2.gbs

