%chk=ch3ccl3.chk
%mem=500mw
%nprocs=4
# b3lyp/gen opt freq CPHF(Grid=OneStep)

1,1,1-trichloroethane, B3LYP/pcseg-2

0 1
C      -0.000000     0.000000     1.769334
C      -0.000000     0.000000     0.255328
H      -0.000000    -1.025069     2.133291
H      -0.887736     0.512535     2.133291
H       0.887736     0.512535     2.133291
Cl      0.000000     1.687706    -0.363683
Cl      1.461597    -0.843853    -0.363683
Cl     -1.461597    -0.843853    -0.363683

@pcseg2.gbs

--Link1--
%chk=ch3ccl3.chk
%mem=500mw
%nprocs=4
# rohf/gen geom=check guess=check

1,1,1-trichloroethane, ROHF/cc-pVTZ-F12

0 1

@ccpvtz-f12.gbs
