%mem=500mw
%nprocs=8
# b3lyp/gen opt freq

acetyl, B3LYP/pcseg-2

0 2
C	-0.9662760	-0.6669670	0.0000000
C	0.0000000	0.5012300	0.0000000
O	1.1820170	0.4742820	0.0000000
H	-0.4372740	-1.6262660	0.0000000
H	-1.6106040	-0.5867820	0.8801700
H	-1.6106040	-0.5867820	-0.8801700

@pcseg2.gbs

