%chk=ch3chnh.chk
%mem=500mw
%nprocs=4
# b3lyp/gen opt freq CPHF(Grid=OneStep)

ethanimine, B3LYP/pcseg-2

0 1
C      -1.030278    -0.636884     0.000000
C       0.000000     0.445775     0.000000
N       1.240598     0.191097     0.000000
H      -0.554453    -1.614994     0.000000
H      -1.676233    -0.546320     0.876807
H      -1.676233    -0.546320    -0.876807
H      -0.390573     1.470892     0.000000
H       1.794974     1.045719     0.000000

@pcseg2.gbs

--Link1--
%chk=ch3chnh.chk
%mem=500mw
%nprocs=4
# rohf/gen geom=check guess=check

ethanimine, ROHF/cc-pVTZ-F12

0 1

@ccpvtz-f12.gbs
