%mem=500mw
%nprocs=6
# b3lyp/gen opt freq

N-methyl methanimine, B3LYP/pcseg-2

0 1
C                  1.14276326    0.13103530    0.00000000
H                  1.70139142   -0.18848376    0.87257590
H                  1.70139142   -0.18848376   -0.87257590
H                  1.07801033    1.21858115    0.00000000
N                 -0.14345391   -0.52491676    0.00000000
C                 -1.17199958    0.17918667    0.00000000
H                 -1.15956032    1.26542344    0.00000000
H                 -2.14163762   -0.29395158    0.00000000

@pcseg2.gbs

