%mem=1000mw
%nprocs=12
# b3lyp/gen opt freq

methyl isocyanide, B3LYP/pcseg-2

0 1
C	0.0000000	0.0000000	-1.1048980
N	0.0000000	0.0000000	0.3110130
C	0.0000000	0.0000000	1.4823870
H	0.0000000	1.0268030	-1.4806740
H	0.8892370	-0.5134010	-1.4806740
H	-0.8892370	-0.5134010	-1.4806740

@pcseg2.gbs

