%chk=ch3no2.chk
%mem=500mw
%nprocs=4
# b3lyp/gen opt freq CPHF(Grid=OneStep)

nitromethane, B3LYP/pcseg-2

0 1
C      -1.324054    -0.028757    -0.002192
N       0.174165    -0.000001    -0.005929
H      -1.640765     0.277856     0.991265
H      -1.667998     0.692331    -0.735952
H      -1.647319    -1.037759    -0.225106
O       0.759059    -1.068845     0.001543
O       0.701097     1.098860     0.001513

@pcseg2.gbs

--Link1--
%chk=ch3no2.chk
%mem=500mw
%nprocs=4
# rohf/gen geom=check guess=check

nitromethane, ROHF/cc-pVTZ-F12

0 1

@ccpvtz-f12.gbs
