%chk=ch3nhch2.chk
%mem=500mw
%nprocs=4
# b3lyp/gen opt freq CPHF(Grid=OneStep)

methylamino methyl, B3LYP/pcseg-2

0 2
N       0.093447     0.468188    -0.124419
C      -1.190405    -0.185777     0.030835
C       1.255806    -0.250483     0.079915
H       0.117712     1.419703     0.205112
H      -1.385542    -0.507225     1.061678
H      -1.986650     0.487145    -0.283698
H      -1.224165    -1.068914    -0.608472
H       2.184634     0.297853     0.050858
H       1.247480    -1.288316    -0.219044

@pcseg2.gbs

--Link1--
%chk=ch3nhch2.chk
%mem=500mw
%nprocs=4
# rohf/gen geom=check guess=check

methylamino methyl, ROHF/cc-pVTZ-F12

0 2

@ccpvtz-f12.gbs
