%mem=1000mw
%nprocs=12
# b3lyp/gen opt freq

nitrosomethane, B3LYP/pcseg-2

0 1
C	-0.9446420	-0.5763180	0.0000000
N	0.0000000	0.5724660	0.0000000
O	1.1563800	0.2388310	0.0000000
H	-0.4137440	-1.5318100	0.0000000
H	-1.5847210	-0.4641000	0.8819810
H	-1.5847210	-0.4641000	-0.8819810

@pcseg2.gbs

