%chk=ch3no.chk
%mem=500mw
%nprocs=4
# b3lyp/gen opt freq CPHF(Grid=OneStep)

nitrosomethane, B3LYP/pcseg-2

0 1
C      -0.943872    -0.574710     0.000000
N       0.000000     0.564575     0.000000
O       1.155677     0.242237     0.000000
H      -0.422618    -1.531245     0.000000
H      -1.579782    -0.455207     0.878896
H      -1.579782    -0.455207    -0.878896

@pcseg2.gbs

--Link1--
%chk=ch3no.chk
%mem=500mw
%nprocs=4
# rohf/gen geom=check guess=check

nitrosomethane, ROHF/cc-pVTZ-F12

0 1

@ccpvtz-f12.gbs
