%mem=500mw
# b3lyp/gen opt freq

methylperoxyl, B3LYP/pcseg-2

0 2
C	0.9968730	-0.4786360	0.0000000
O	0.0000000	0.5675530	0.0000000
O	-1.2121740	0.0599390	0.0000000
H	1.9617010	0.0316220	0.0000000
H	0.8772280	-1.0898740	0.8971310
H	0.8772280	-1.0898740	-0.8971310

@pcseg2.gbs

