%chk=ch3oo.chk
%mem=500mw
%nprocs=4
# b3lyp/gen opt freq CPHF(Grid=OneStep)

methylperoxyl, B3LYP/pcseg-2

0 2
C       1.000942    -0.478709     0.000000
O       0.000000     0.564213     0.000000
O      -1.216126     0.061604     0.000000
H       1.957652     0.036459     0.000000
H       0.882851    -1.085372     0.894782
H       0.882851    -1.085372    -0.894782

@pcseg2.gbs

--Link1--
%chk=ch3oo.chk
%mem=500mw
%nprocs=4
# rohf/gen geom=check guess=check

methylperoxyl, ROHF/cc-pVTZ-F12

0 2

@ccpvtz-f12.gbs
