%chk=ch3och2.chk
%mem=500mw
%nprocs=4
# b3lyp/gen opt freq CPHF(Grid=OneStep)

methoxylmethyl, B3LYP/pcseg-2

0 2
O      -0.092015    -0.538961    -0.035022
C       1.139715     0.167444     0.012056
C      -1.203403     0.224599     0.061026
H       1.931118    -0.562731    -0.132696
H       1.265220     0.658399     0.979982
H       1.185283     0.917429    -0.782624
H      -2.125372    -0.327259    -0.022948
H      -1.138001     1.273598    -0.200027

@pcseg2.gbs

--Link1--
%chk=ch3och2.chk
%mem=500mw
%nprocs=4
# rohf/gen geom=check guess=check

methoxylmethyl, ROHF/cc-pVTZ-F12

0 2

@ccpvtz-f12.gbs
