%mem=1000mw
%nprocs=12
# b3lyp/gen opt freq

methyl hydroperoxide, B3LYP/pcseg-2

0 1
C	1.1210770	-0.2262680	0.0186250
O	-0.0176810	0.6091600	-0.0147720
O	-1.1653140	-0.2648330	-0.1057760
H	1.9725660	0.4616100	0.0339150
H	1.1399000	-0.8552350	0.9186370
H	1.1780170	-0.8622010	-0.8724600
H	-1.5529850	-0.1411830	0.7725470

@pcseg2.gbs

