%mem=500mw
# b3lyp/gen opt freq

CH3Cl, B3LYP/pcseg-2

0 1
C
O 1 1.3
H 1 r 2 a
H 1 r 2 a 3 120.
H 1 r 2 a 3 -120.
H 2 1. 1 109. 3 180.

r 1.
a 109.5

@pcseg2.gbs

