%mem=1000mw
%nprocs=12
# b3lyp/gen opt freq

methoxylmethyl, B3LYP/pcseg-2

0 2
O          0.063671       0.499310      -0.025659
C         -1.158412      -0.215836       0.011268
C          1.177388      -0.267669       0.048974
H         -1.961586       0.513243      -0.110490
H         -1.280717      -0.738323       0.968381
H         -1.209035      -0.951089      -0.803811
H          2.094891       0.299863      -0.046887
H          1.120003      -1.291103      -0.317268

@pcseg2.gbs

