%mem=1000mw
%nprocs=12
# b3lyp/gen opt freq

methyl hypochlorite, B3LYP/pcseg-2

0 1
O	0.0000000	0.8192110	0.0000000
Cl	-0.8117040	-0.7243370	0.0000000
C	1.4142830	0.6423480	0.0000000
H	1.7959020	1.6663760	0.0000000
H	1.7586820	0.1197900	0.8973290
H	1.7586820	0.1197900	-0.8973290

@pcseg2.gbs

