%mem=500mw
%nprocs=4
# b3lyp/gen opt freq

methanethiol, B3LYP/pcseg-2

0 1
C	-0.0480190	1.1645230	0.0000000
S	-0.0480190	-0.6711720	0.0000000
H	1.2906260	-0.8345800	0.0000000
H	-1.0953020	1.4657220	0.0000000
H	0.4305490	1.5602390	0.8946260
H	0.4305490	1.5602390	-0.8946260

@pcseg2.gbs

