%mem=500mw
# b3lyp/gen opt freq

methylidyne, B3LYP/pcseg-2

0 2
H
C 1 r

r 1.1

@pcseg2.gbs

