%mem=1000mw
%nprocs=12
# b3lyp/gen opt freq

2-cyanovinyl, B3LYP/pcseg-2

0 2
C         -1.723042      -0.367367       0.000000
C         -0.733868       0.500482       0.000000
C          0.641328       0.102817       0.000000
H         -1.856575      -1.439038       0.000000
H         -0.923695       1.572775       0.000000
N          1.755973      -0.211808       0.000000

@pcseg2.gbs

