%mem=1000mw
%nprocs=12
# b3lyp/gen opt freq

chloromethylene, B3LYP/pcseg-2

0 1
C	0.0451910	1.1990280	0.0000000
Cl	0.0451910	-0.5072640	0.0000000
H	-1.0394030	1.4293230	0.0000000

@pcseg2.gbs

