%chk=chclo.chk
%mem=500mw
%nprocs=4
# b3lyp/gen opt freq CPHF(Grid=OneStep)

formyl chloride, B3LYP/pcseg-2

0 1
C       0.000000     0.803485     0.000000
O       1.117368     1.173569     0.000000
Cl     -0.473020    -0.919944     0.000000
H      -0.897596     1.429576     0.000000

@pcseg2.gbs

--Link1--
%chk=chclo.chk
%mem=500mw
%nprocs=4
# rohf/gen geom=check guess=check

formyl chloride, ROHF/cc-pVTZ-F12

0 1

@ccpvtz-f12.gbs
