%mem=1000mw
%nprocs=12
# b3lyp/gen opt freq

chlorodifluoromethane, B3LYP/pcseg-2

0 1
C	-0.5782830	-0.0982460	0.0000000
H	-1.4449660	0.5659010	0.0000000
Cl	0.9013980	0.9240720	0.0000000
F	-0.5782830	-0.8714250	1.0833580
F	-0.5782830	-0.8714250	-1.0833580

@pcseg2.gbs

