%mem=1000mw
%nprocs=12
# b3lyp/gen opt freq

chloroform, B3LYP/pcseg-2

0 1
C	0.0000000	0.0000000	0.4566840
H	0.0000000	0.0000000	1.5412330
Cl	0.0000000	1.6967390	-0.0839480
Cl	1.4694190	-0.8483690	-0.0839480
Cl	-1.4694190	-0.8483690	-0.0839480

@pcseg2.gbs

