%mem=1000mw
%nprocs=12
# b3lyp/gen opt freq

cis-1,2-dichloroethylene, B3LYP/pcseg-2

0 1
C          0.664136       1.008400       0.000000
C         -0.664136       1.008400       0.000000
Cl         1.660817      -0.401908       0.000000
Cl        -1.660817      -0.401908       0.000000
H          1.217949       1.938307       0.000000
H         -1.217949       1.938307       0.000000

@pcseg2.gbs

