%mem=1000mw
%nprocs=12
# b3lyp/gen opt freq

dichloromethyl, B3LYP/pcseg-2

0 2
C	0.0122000	0.6963400	0.0000000
H	-0.4880000	1.6537520	0.0000000
Cl	0.0122000	-0.1715230	1.4842050
Cl	0.0122000	-0.1715230	-1.4842050

@pcseg2.gbs

