%chk=chcl2chcl2.chk
%mem=500mw
%nprocs=4
# b3lyp/gen opt freq CPHF(Grid=OneStep)

1,1,2,2-tetrachloroethane, B3LYP/pcseg-2

0 1
C       0.231072     0.729506    -0.486800
C      -0.231072    -0.729506    -0.486800
H       0.864183     0.888717    -1.352116
Cl     -1.186737     1.807887    -0.692447
Cl      1.186737     1.176348     0.943795
H      -0.864183    -0.888717    -1.352116
Cl      1.186737    -1.807887    -0.692447
Cl     -1.186737    -1.176348     0.943795

@pcseg2.gbs

--Link1--
%chk=chcl2chcl2.chk
%mem=500mw
%nprocs=4
# rohf/gen geom=check guess=check

1,1,2,2-tetrachloroethane, ROHF/cc-pVTZ-F12

0 1

@ccpvtz-f12.gbs
