%mem=1000mw
%nprocs=12
# b3lyp/gen opt freq

formyl chloride, B3LYP/pcseg-2

0 1
C	0.0000000	0.8142500	0.0000000
O	1.1160150	1.1851820	0.0000000
Cl	-0.4719970	-0.9294790	0.0000000
H	-0.9041700	1.4341860	0.0000000

@pcseg2.gbs

