%mem=1000mw
%nprocs=12
# b3lyp/gen opt freq

fluoromethylene, B3LYP/pcseg-2

0 1
H	-1.0308570	0.9576670	0.0000000
C	0.0687240	0.7237410	0.0000000
F	0.0687240	-0.5889020	0.0000000

@pcseg2.gbs

