%mem=500mw
# b3lyp/gen opt freq

CHF3, B3LYP/pcseg-2

0 1
C
H 1 1.
F 1 r 2 a
F 1 r 2 a 3 120.
F 1 r 2 a 3 -120.

r 1.3
a 109.

@pcseg2.gbs

