%mem=1000mw
%nprocs=12
# b3lyp/gen opt freq

chlorodifluoromethane, B3LYP/pcseg-2

0 1
C	-0.1754450	0.5318780	0.0000000
H	-1.0879240	1.1249720	0.0000000
F	0.9006340	1.3185540	0.0000000
Cl	-0.1754450	-0.4759770	1.4756100
Cl	-0.1754450	-0.4759770	-1.4756100

@pcseg2.gbs

