%mem=1000mw
%nprocs=12
# b3lyp/gen opt freq

formyl fluoride, B3LYP/pcseg-2

0 1
C	0.0000000	0.3935440	0.0000000
O	1.1483090	0.1192760	0.0000000
F	-0.9708210	-0.5234170	0.0000000
H	-0.4490880	1.3952890	0.0000000

@pcseg2.gbs

