%mem=500mw
%nprocs=4
# b3lyp/gen opt freq

formyl, B3LYP/pcseg-2

0 2
C
H 1 r
O 1 ro 2 a

r 1.
ro 1.3
a 115.

@pcseg2.gbs

