%mem=1000mw
%nprocs=12
# b3lyp/gen opt freq

glyoxal, B3LYP/pcseg-2

0 1
C	-0.3274680	0.6892910	0.0000000
C	0.3274680	-0.6892910	0.0000000
H	-1.4338770	0.6800060	0.0000000
H	1.4338770	-0.6800060	0.0000000
O	0.3274680	1.6980820	0.0000000
O	-0.3274680	-1.6980820	0.0000000

@pcseg2.gbs

