%mem=1000mw
%nprocs=12
# b3lyp/gen opt freq

formamide, B3LYP/pcseg-2

0 1
C	0.0000000	0.4186690	0.0000000
O	1.1961670	0.2422360	0.0000000
N	-0.9352040	-0.5686340	0.0000000
H	-0.4677700	1.4245110	0.0000000
H	-0.6361770	-1.5307940	0.0000000
H	-1.9189580	-0.3631730	0.0000000

@pcseg2.gbs

