%nprocs=2
%mem=1GB
# b3lyp/gen opt freq

Cl2 geom opt, B3LYP/pcseg-2

0 1
Cl
Cl 1 1.7

@/home/irikura/basis/pcseg2.gbs

