%mem=1000mw
%nprocs=12
# b3lyp/gen opt freq

oxygen dichloride, B3LYP/pcseg-2

0 1
O
Cl 1 r
Cl 1 r 2 a

r 1.7
a 105.

@pcseg2.gbs

