%mem=500mw
# b3lyp/gen opt freq

chlorine atom, B3LYP/pcseg-2

0 2
Cl

@pcseg2.gbs

