%mem=500mw
%nprocs=4
# b3lyp/gen opt freq

chloroformyl, B3LYP/pcseg-2

0 2
Cl	-0.4984660	-0.9253850	0.0000000
C	0.0000000	0.8646180	0.0000000
O	1.0592400	1.3179800	0.0000000

@pcseg2.gbs

