%mem=1000mw
%nprocs=12
# b3lyp/gen opt freq

chlorine difluoride, B3LYP/pcseg-2

0 2
Cl         0.000000       0.202291       0.000000
F          1.685603      -0.186170       0.000000
F         -1.685603      -0.186170       0.000000

@pcseg2.gbs

