%mem=1000mw
%nprocs=12
# b3lyp/gen opt freq

chlorine trifluoride, B3LYP/pcseg-2

0 1
Cl	0.0000000	0.0000000	0.3650680
F	0.0000000	0.0000000	-1.2613040
F	0.0000000	1.7124700	0.2858660
F	0.0000000	-1.7124700	0.2858660

@pcseg2.gbs

