%mem=1000mw
%nprocs=12
# b3lyp/gen opt freq

chlorine pentafluoride, B3LYP/pcseg-2

0 1
Cl	0.0000000	0.0000000	0.3059060
F	0.0000000	0.0000000	-1.3181390
F	0.0000000	1.6800660	0.1850790
F	-1.6800660	0.0000000	0.1850790
F	0.0000000	-1.6800660	0.1850790
F	1.6800660	0.0000000	0.1850790

@pcseg2.gbs

