%nprocs=2
%mem=1GB
# b3lyp/gen opt freq

ClF geom opt, B3LYP/pcseg-2

0 1
Cl
F 1 1.7

@/home/irikura/basis/pcseg2.gbs

