%mem=1000mw
%nprocs=12
# b3lyp/gen opt freq

nitrosyl chloride, B3LYP/pcseg-2

0 1
Cl	-0.5227060	-0.9751810	0.0000000
N	0.0000000	1.0076270	0.0000000
O	1.1107500	1.1905860	0.0000000

@pcseg2.gbs

