%mem=1000mw
%nprocs=12
# b3lyp/gen opt freq

chlorine trioxide, B3LYP/pcseg-2

0 2
Cl	0.0000000	0.0000000	0.2124710
O	0.0000000	1.4280570	-0.1505000
O	1.2367340	-0.7140290	-0.1505000
O	-1.2367340	-0.7140290	-0.1505000

@pcseg2.gbs

