%mem=500mw
%nprocs=4
# b3lyp/gen opt freq

ClO, B3LYP/pcseg-2

0 2
Cl
O 1 r

r 1.5

@pcseg2.gbs

