%mem=500mw
%nprocs=4
# b3lyp/gen opt freq scf=xqc

chloroperoxyl, B3LYP/pcseg-2

0 2
Cl	-0.5483260	-1.1214860	0.0000000
O	0.0000000	1.0628640	0.0000000
O	1.1651940	1.3202940	0.0000000

@pcseg2.gbs

