%mem=1000mw
%nprocs=12
# b3lyp/gen opt freq

chlorine peroxide, B3LYP/pcseg-2

0 1
O	0.3261900	0.5845720	0.8255990
O	-0.3261900	-0.5845720	0.8255990
Cl	-0.3261900	1.7044540	-0.3885170
Cl	0.3261900	-1.7044540	-0.3885170

@pcseg2.gbs

