%chk=cloocl.chk
%mem=500mw
%nprocs=4
# b3lyp/gen opt freq CPHF(Grid=OneStep)

chlorine peroxide, B3LYP/pcseg-2

0 1
O       0.327654     0.595376     0.820179
O      -0.327654    -0.595376     0.820179
Cl     -0.327654     1.694641    -0.385967
Cl      0.327654    -1.694641    -0.385967

@pcseg2.gbs

--Link1--
%chk=cloocl.chk
%mem=500mw
%nprocs=4
# rohf/gen geom=check guess=check

chlorine peroxide, ROHF/cc-pVTZ-F12

0 1

@ccpvtz-f12.gbs
