%mem=1000mw
%nprocs=12
# b3lyp/gen opt freq

neopentane, B3LYP/pcseg-2

0 1
C	0.0000000	0.0000000	0.0000000
C	0.8890280	0.8890280	0.8890280
C	-0.8890280	-0.8890280	0.8890280
C	-0.8890280	0.8890280	-0.8890280
C	0.8890280	-0.8890280	-0.8890280
H	1.5344980	0.2830350	1.5344980
H	1.5344980	1.5344980	0.2830350
H	0.2830350	1.5344980	1.5344980
H	-1.5344980	-1.5344980	0.2830350
H	-0.2830350	-1.5344980	1.5344980
H	-1.5344980	-0.2830350	1.5344980
H	-1.5344980	0.2830350	-1.5344980
H	-1.5344980	1.5344980	-0.2830350
H	-0.2830350	1.5344980	-1.5344980
H	1.5344980	-1.5344980	-0.2830350
H	0.2830350	-1.5344980	-1.5344980
H	1.5344980	-0.2830350	-1.5344980

@pcseg2.gbs

