%mem=1000mw
%nprocs=12
# b3lyp/gen opt freq

cyano radical, B3LYP/pcseg-2

0 2
C          0.613311       0.000000       0.000000
N         -0.691254       0.000000       0.000000

@pcseg2.gbs

