%mem=1000mw
%nprocs=12
# b3lyp/gen opt freq

isocyanogen, B3LYP/pcseg-2

0 1
C          0.613311       0.000000       0.000000
N         -0.691254       0.000000       0.000000
N          1.772732       0.000000       0.000000
C         -1.875313       0.000000       0.000000

@pcseg2.gbs

