%mem=500mw
# b3lyp/gen opt freq

CO2, B3LYP/pcseg-2

0 1
C 0. 0. 0.
O 0. 0. 1.3
O 0. 0. -1.3

@pcseg2.gbs

