%mem=1000mw
%nprocs=12
# b3lyp/gen opt freq

carbonic acid, B3LYP/pcseg-2

0 1
C	0.0000000	0.0000000	0.1014590
O	0.0000000	0.0000000	1.3054710
O	0.0000000	1.0890080	-0.6794270
O	0.0000000	-1.0890080	-0.6794270
H	0.0000000	1.8566390	-0.0908450
H	0.0000000	-1.8566390	-0.0908450

@pcseg2.gbs

