%mem=500mw
# b3lyp/gen opt freq

CO, B3LYP/pcseg-2

0 1
C
O 1 r

r 1.3

@pcseg2.gbs

