%chk=CpH.chk
%mem=500mw
%nprocs=4
# b3lyp/gen opt freq CPHF(Grid=OneStep)

cyclopentadiene, B3LYP/pcseg-2

0 1
H       0.874475    -0.000000     1.873980
H      -0.874475     0.000000     1.873980
H       0.000000     2.205138     0.606574
H      -0.000000    -2.205138     0.606574
H       0.000000     1.344206    -1.877978
H      -0.000000    -1.344206    -1.877978
C       0.000000     1.176633     0.280612
C      -0.000000    -1.176633     0.280612
C       0.000000     0.000000     1.213303
C       0.000000     0.732599    -0.987693
C      -0.000000    -0.732599    -0.987693

@pcseg2.gbs

--Link1--
%chk=CpH.chk
%mem=500mw
%nprocs=4
# rohf/gen geom=check guess=check

cyclopentadiene, ROHF/cc-pVTZ-F12

0 1

@ccpvtz-f12.gbs
