%mem=1000mw
%nprocs=12
# b3lyp/gen opt freq

5-methyl-1,3-cyclopentadiene, B3LYP/pcseg-2

0 1
C         -0.738884       0.000000      -0.444055
C          0.167568       1.176448      -0.174845
C          0.167568      -1.176448      -0.174845
C          1.386577       0.734801       0.181173
C          1.386577      -0.734801       0.181173
H         -1.017111       0.000000      -1.511092
C         -2.038994       0.000000       0.381780
H         -0.153811       2.206311      -0.263651
H         -0.153811      -2.206311      -0.263651
H          2.245908       1.345472       0.430193
H          2.245908      -1.345472       0.430193
H         -1.815300       0.000000       1.452419
H         -2.642967      -0.884989       0.158198
H         -2.642967       0.884989       0.158198

@pcseg2.gbs

