%mem=500mw
%nprocs=4
# b3lyp/gen opt freq

carbonyl monosulfide, B3LYP/pcseg-2

0 1
C
S 1 1.6

@pcseg2.gbs

