%mem=500mw
%nprocs=6
# b3lyp/gen opt freq

cyclopropane, B3LYP/pcseg-2

0 1
C	0.0000000	0.8711000	0.0000000
C	0.7543950	-0.4355500	0.0000000
C	-0.7543950	-0.4355500	0.0000000
H	0.0000000	1.4635410	0.9110050
H	1.2674640	-0.7317710	0.9110050
H	-1.2674640	-0.7317710	0.9110050
H	0.0000000	1.4635410	-0.9110050
H	1.2674640	-0.7317710	-0.9110050
H	-1.2674640	-0.7317710	-0.9110050

@pcseg2.gbs

