%chk=cyc3trisCH2.chk
%mem=500mw
%nprocs=4
# b3lyp/gen opt freq CPHF(Grid=OneStep)

trimethylenecyclopropane, B3LYP/pcseg-2

0 1
C      -0.000000     0.830144     0.000000
C      -0.718926    -0.415072     0.000000
C       0.718926    -0.415072     0.000000
C      -0.000000     2.159166     0.000000
C      -1.869893    -1.079583     0.000000
C       1.869893    -1.079583     0.000000
H       0.924775     2.719758     0.000000
H      -0.924775     2.719758    -0.000000
H      -2.817767    -0.559000     0.000000
H      -1.892992    -2.160757     0.000000
H       1.892992    -2.160757     0.000000
H       2.817767    -0.559000    -0.000000

@pcseg2.gbs

--Link1--
%chk=cyc3trisCH2.chk
%mem=500mw
%nprocs=4
# rohf/gen geom=check guess=check

trimethylenecyclopropane, ROHF/cc-pVTZ-F12

0 1

@ccpvtz-f12.gbs
