%chk=cyc3.chk
%mem=500mw
%nprocs=4
# b3lyp/gen opt freq CPHF(Grid=OneStep)

cyclopropane, B3LYP/pcseg-2

0 1
C      -0.000000     0.868507     0.000000
C       0.752149    -0.434254     0.000000
C      -0.752149    -0.434254     0.000000
H      -0.000000     1.456469     0.906888
H       1.261339    -0.728234     0.906888
H      -1.261339    -0.728234     0.906888
H       0.000000     1.456469    -0.906888
H       1.261339    -0.728234    -0.906888
H      -1.261339    -0.728234    -0.906888

@pcseg2.gbs

--Link1--
%chk=cyc3.chk
%mem=500mw
%nprocs=4
# rohf/gen geom=check guess=check

cyclopropane, ROHF/cc-pVTZ-F12

0 1

@ccpvtz-f12.gbs
