%mem=500mw
%nprocs=6
# b3lyp/gen opt freq

cyclobutane, B3LYP/pcseg-2

0 1
C	0.0000000	1.0849630	0.1225050
C	0.0000000	-1.0849630	0.1225050
C	-1.0849630	0.0000000	-0.1225050
C	1.0849630	0.0000000	-0.1225050
H	0.0000000	1.4270210	1.1606420
H	0.0000000	1.9603720	-0.5301430
H	0.0000000	-1.4270210	1.1606420
H	0.0000000	-1.9603720	-0.5301430
H	-1.4270210	0.0000000	-1.1606420
H	-1.9603720	0.0000000	0.5301430
H	1.4270210	0.0000000	-1.1606420
H	1.9603720	0.0000000	0.5301430

@pcseg2.gbs

