%chk=cyc5me.chk
%mem=1000mw
%nprocs=4
# b3lyp/gen opt freq CPHF(Grid=OneStep)

methylcyclopentane, B3LYP/pcseg-2

0 1
C       0.213925     2.216708     0.000000
C       0.450734     0.711224     0.000000
C      -0.158426    -0.036002     1.195913
C      -0.158426    -0.036002    -1.195913
C      -0.158426    -1.520284    -0.778285
C      -0.158426    -1.520284     0.778285
H       0.651967     2.689767    -0.880809
H       0.651967     2.689767     0.880809
H      -0.855653     2.440388     0.000000
H       1.531908     0.527459     0.000000
H       0.380763     0.142197     2.127331
H       0.380763     0.142197    -2.127331
H      -1.183704     0.315558     1.346604
H      -1.183704     0.315558    -1.346604
H       0.733669    -2.021357    -1.156118
H       0.733669    -2.021357     1.156118
H      -1.013684    -2.056169    -1.189371
H      -1.013684    -2.056169     1.189371

@pcseg2.gbs

--Link1--
%chk=cyc5me.chk
%mem=1000mw
%nprocs=4
# rohf/gen geom=check guess=check

methylcyclopentane, ROHF/cc-pVTZ-F12

0 1

@ccpvtz-f12.gbs
