%chk=cyc7.chk
%mem=1000mw
%nprocs=4
# b3lyp/gen opt freq CPHF(Grid=OneStep)

cycloheptane, B3LYP/pcseg-2

0 1
C      -0.000000     0.000000     1.772338
C       0.704229     1.106962     0.967946
C      -0.704229    -1.106962     0.967946
C       0.000000     1.576064    -0.313728
C      -0.000000    -1.576064    -0.313728
C       0.302548     0.703601    -1.539609
C      -0.302548    -0.703601    -1.539609
H      -0.741795     0.456368     2.433395
H       0.741795    -0.456368     2.433395
H       1.710408     0.775430     0.695642
H      -1.710408    -0.775430     0.695642
H       0.849894     1.960533     1.634297
H      -0.849894    -1.960533     1.634297
H       0.331992     2.592782    -0.537989
H      -0.331992    -2.592782    -0.537989
H      -1.080977     1.643091    -0.153389
H       1.080977    -1.643091    -0.153389
H       1.390656     0.624471    -1.637829
H      -1.390656    -0.624471    -1.637829
H      -0.042548     1.221537    -2.438794
H       0.042548    -1.221537    -2.438794

@pcseg2.gbs

--Link1--
%chk=cyc7.chk
%mem=1000mw
%nprocs=4
# rohf/gen geom=check guess=check

cycloheptane, ROHF/cc-pVTZ-F12

0 1

@ccpvtz-f12.gbs
