%mem=1000mw
%nprocs=12
# b3lyp/gen opt(tight,calcfc) freq

cycloheptane, B3LYP/pcseg-2

0 1
C	0.0000000	0.0000000	1.7720660
C	0.7022010	1.1091240	0.9687290
C	-0.7022010	-1.1091240	0.9687290
C	0.0000000	1.5773530	-0.3146750
C	0.0000000	-1.5773530	-0.3146750
C	0.3029920	0.7032390	-1.5392590
C	-0.3029920	-0.7032390	-1.5392590
H	-0.7428620	0.4546940	2.4331480
H	0.7428620	-0.4546940	2.4331480
H	1.7097980	0.7803070	0.6978640
H	-1.7097980	-0.7803070	0.6978640
H	0.8443440	1.9629860	1.6355080
H	-0.8443440	-1.9629860	1.6355080
H	0.3336340	2.5934710	-0.5395180
H	-0.3336340	-2.5934710	-0.5395180
H	-1.0812400	1.6459500	-0.1560670
H	1.0812400	-1.6459500	-0.1560670
H	1.3911460	0.6233380	-1.6367340
H	-1.3911460	-0.6233380	-1.6367340
H	-0.0409410	1.2208460	-2.4391710
H	0.0409410	-1.2208460	-2.4391710

@pcseg2.gbs

