%chk=cyc7diene.chk
%mem=1000mw
%nprocs=4
# b3lyp/gen opt freq CPHF(Grid=OneStep)

cycloheptadiene, B3LYP/pcseg-2

0 1
C       0.623521    -1.413279    -0.000000
C      -0.130314     1.489433     0.730239
C      -0.130314     1.489433    -0.730239
C      -0.130314     0.465201     1.593417
C      -0.130314     0.465201    -1.593417
C      -0.080054    -1.004805     1.296845
C      -0.080054    -1.004805    -1.296845
H       0.729499    -2.500505    -0.000000
H       1.636140    -1.003318    -0.000000
H      -0.162444     2.481585     1.167435
H      -0.162444     2.481585    -1.167435
H      -0.170402     0.718422     2.647614
H      -0.170402     0.718422    -2.647614
H       0.423701    -1.499418     2.132172
H      -1.100142    -1.407810     1.303850
H       0.423701    -1.499418    -2.132172
H      -1.100142    -1.407810    -1.303850

@pcseg2.gbs

--Link1--
%chk=cyc7diene.chk
%mem=1000mw
%nprocs=4
# rohf/gen geom=check guess=check

cycloheptadiene, ROHF/cc-pVTZ-F12

0 1

@ccpvtz-f12.gbs
