%mem=1000mw
%nprocs=12
# b3lyp/gen opt freq

cyclopentene, B3LYP/pcseg-2

0 1
C	0.2485620	-1.2092230	0.0000000
C	-0.0642100	-0.3247650	1.2366270
C	-0.0642100	-0.3247650	-1.2366270
C	-0.0642100	1.0743490	0.6658190
C	-0.0642100	1.0743490	-0.6658190
H	1.3119220	-1.4682910	0.0000000
H	-0.3104190	-2.1482880	0.0000000
H	-1.0443680	-0.5625730	1.6746350
H	-1.0443680	-0.5625730	-1.6746350
H	-0.0990970	1.9596910	1.2915760
H	-0.0990970	1.9596910	-1.2915760
H	0.6675520	-0.4586610	-2.0416540
H	0.6675520	-0.4586610	2.0416540

@pcseg2.gbs

