%chk=cyclobutadiene.chk
%mem=500mw
%nprocs=4
# b3lyp/gen opt freq CPHF(Grid=OneStep)

cyclobutadiene, B3LYP/pcseg-2

0 1
C      -0.000000     0.664584     0.787054
C       0.000000     0.664584    -0.787054
C      -0.000000    -0.664584     0.787054
C      -0.000000    -0.664584    -0.787054
H      -0.000000     1.428861     1.548225
H       0.000000     1.428861    -1.548225
H      -0.000000    -1.428861     1.548225
H      -0.000000    -1.428861    -1.548225

@pcseg2.gbs

--Link1--
%chk=cyclobutadiene.chk
%mem=500mw
%nprocs=4
# rohf/gen geom=check guess=check

cyclobutadiene, ROHF/cc-pVTZ-F12

0 1

@ccpvtz-f12.gbs
