%chk=cyclohexene.chk
%mem=1000mw
%nprocs=4
# b3lyp/gen opt freq CPHF(Grid=OneStep)

cyclohexene, B3LYP/pcseg-2

0 1
C      -0.118479    -0.654614     1.302443
C       0.118479     0.654614     1.302443
C       0.249168     1.476393     0.048328
C      -0.249168    -1.476393     0.048328
C      -0.249168     0.723503    -1.190019
C       0.249168    -0.723503    -1.190019
H      -0.223359    -1.176621     2.247302
H       0.223359     1.176621     2.247302
H       1.297476     1.768821    -0.085843
H      -1.297476    -1.768821    -0.085843
H      -0.300926     2.414004     0.166428
H       0.300926    -2.414004     0.166428
H      -1.343192     0.724363    -1.194379
H       1.343192    -0.724363    -1.194379
H       0.068228     1.239603    -2.098020
H      -0.068228    -1.239603    -2.098020

@pcseg2.gbs

--Link1--
%chk=cyclohexene.chk
%mem=1000mw
%nprocs=4
# rohf/gen geom=check guess=check

cyclohexene, ROHF/cc-pVTZ-F12

0 1

@ccpvtz-f12.gbs
