%chk=decane.chk
%mem=1500mw
%nprocs=4
# b3lyp/gen opt freq CPHF(Grid=OneStep)

n-decane, B3LYP/pcseg-2

0 1
C       0.000687     0.764671     0.000000
C      -0.000687    -0.764671     0.000000
C      -1.399425     1.379654     0.000000
C       1.399425    -1.379654     0.000000
C      -1.399425     2.908667     0.000000
C       1.399425    -2.908667     0.000000
C      -2.799643     3.523477     0.000000
C       2.799643    -3.523477     0.000000
C      -2.789343     5.051329     0.000000
C       2.789343    -5.051329     0.000000
H       0.552813     1.124719     0.874456
H       0.552813     1.124719    -0.874456
H      -0.552813    -1.124719     0.874456
H      -0.552813    -1.124719    -0.874456
H      -1.951416     1.019224    -0.874466
H      -1.951416     1.019224     0.874466
H       1.951416    -1.019224    -0.874466
H       1.951416    -1.019224     0.874466
H      -0.848022     3.270394     0.874460
H      -0.848022     3.270394    -0.874460
H       0.848022    -3.270394     0.874460
H       0.848022    -3.270394    -0.874460
H      -3.350446     3.162721    -0.873891
H      -3.350446     3.162721     0.873891
H       3.350446    -3.162721    -0.873891
H       3.350446    -3.162721     0.873891
H      -3.801502     5.458136     0.000000
H      -2.275304     5.442085     0.880558
H      -2.275304     5.442085    -0.880558
H       3.801502    -5.458136     0.000000
H       2.275304    -5.442085     0.880558
H       2.275304    -5.442085    -0.880558

@pcseg2.gbs

--Link1--
%chk=decane.chk
%mem=1500mw
%nprocs=4
# rohf/gen geom=check guess=check

n-decane, ROHF/cc-pVTZ-F12

0 1

@ccpvtz-f12.gbs
