%mem=1000mw
%nprocs=12
# b3lyp/gen opt freq

n-decane, B3LYP/pcseg-2

0 1
C	0.0021680	0.7647860	0.0000000
C	-0.0021680	-0.7647860	0.0000000
C	-1.3977640	1.3807150	0.0000000
C	1.3977640	-1.3807150	0.0000000
C	-1.3977640	2.9098770	0.0000000
C	1.3977640	-2.9098770	0.0000000
C	-2.7984220	3.5240900	0.0000000
C	2.7984220	-3.5240900	0.0000000
C	-2.7885630	5.0521370	0.0000000
C	2.7885630	-5.0521370	0.0000000
H	0.5548060	1.1239700	0.8745620
H	0.5548060	1.1239700	-0.8745620
H	-0.5548060	-1.1239700	0.8745620
H	-0.5548060	-1.1239700	-0.8745620
H	-1.9500250	1.0205010	-0.8744650
H	-1.9500250	1.0205010	0.8744650
H	1.9500250	-1.0205010	-0.8744650
H	1.9500250	-1.0205010	0.8744650
H	-0.8463370	3.2715770	0.8745360
H	-0.8463370	3.2715770	-0.8745360
H	0.8463370	-3.2715770	0.8745360
H	0.8463370	-3.2715770	-0.8745360
H	-3.3491790	3.1632490	-0.8739430
H	-3.3491790	3.1632490	0.8739430
H	3.3491790	-3.1632490	-0.8739430
H	3.3491790	-3.1632490	0.8739430
H	-3.8008370	5.4590390	0.0000000
H	-2.2742210	5.4427060	0.8806420
H	-2.2742210	5.4427060	-0.8806420
H	3.8008370	-5.4590390	0.0000000
H	2.2742210	-5.4427060	0.8806420
H	2.2742210	-5.4427060	-0.8806420

@pcseg2.gbs

