%mem=1000mw
%nprocs=12
# b3lyp/gen opt freq

dioxirane, B3LYP/pcseg-2

0 1
C	0.0000000	0.0000000	0.7297670
H	0.9283620	0.0000000	1.3016480
H	-0.9283620	0.0000000	1.3016480
O	0.0000000	0.7502740	-0.4363690
O	0.0000000	-0.7502740	-0.4363690

@pcseg2.gbs

