%chk=dioxolane.chk
%mem=500mw
%nprocs=8
# b3lyp/gen opt freq CPHF(Grid=OneStep)

1,3-Dioxolane geometry opt, B3LYP/pcseg-2, 2nd try

0 1
C     0.095000   -0.010000    1.210698
C    -0.250365    0.704061   -0.969336
C     0.320365   -0.704061   -0.929336
O    -0.085000    1.151111    0.381338
O    -0.085000   -1.141111    0.371338
H     1.127590    0.023221    1.650113
H    -0.667590   -0.053221    2.020113
H    -1.314609    0.697917   -1.244496
H     1.414609   -0.697917   -1.024496
H    -0.110427   -1.382511   -1.667397
H     0.290427    1.382511   -1.627397

@pcseg2.gbs

