%mem=1000mw
%nprocs=12
# b3lyp/gen opt freq

disilyl ether, B3LYP/pcseg-2

0 1
O          0.000000       0.262008       0.000000
Si         1.601262      -0.058649       0.000000
Si        -1.601262      -0.058649       0.000000
H          2.342156       1.224521       0.000000
H          1.971172      -0.837786       1.208138
H          1.971172      -0.837786      -1.208138
H         -2.342156       1.224521       0.000000
H         -1.971172      -0.837786      -1.208138
H         -1.971172      -0.837786       1.208138

@pcseg2.gbs

