%mem=500mw
%nprocs=4
# b3lyp/gen opt freq

dimethylamine, B3LYP/pcseg-2

0 1
N	0.0269510	0.5836590	0.0000000
H	-0.7876950	1.1886570	0.0000000
C	0.0269510	-0.2218670	1.2135370
C	0.0269510	-0.2218670	-1.2135370
H	-0.8014390	-0.9509240	1.2753960
H	-0.8014390	-0.9509240	-1.2753960
H	0.9632440	-0.7846510	1.2778190
H	0.9632440	-0.7846510	-1.2778190
H	-0.0239870	0.4296400	2.0893040
H	-0.0239870	0.4296400	-2.0893040

@pcseg2.gbs

