%mem=500mw
%nprocs=4
# b3lyp/gen opt freq

dimethyl ether, B3LYP/pcseg-2

0 1
O	0.0000000	0.0000000	0.5960370
C	0.0000000	1.2068440	-0.2012200
C	0.0000000	-1.2068440	-0.2012200
H	0.0000000	2.0398800	0.5030870
H	0.0000000	-2.0398800	0.5030870
H	0.8940800	1.2693680	-0.8399580
H	-0.8940800	1.2693680	-0.8399580
H	-0.8940800	-1.2693680	-0.8399580
H	0.8940800	-1.2693680	-0.8399580

@pcseg2.gbs

