%mem=500mw
%nprocs=4
# b3lyp/gen opt freq

diethyl ether, B3LYP/pcseg-2

0 1
O	0.0000000	0.0000000	0.2549040
C	0.0000000	1.1842660	-0.5220530
C	0.0000000	-1.1842660	-0.5220530
C	0.0000000	2.3765020	0.4163120
C	0.0000000	-2.3765020	0.4163120
H	0.8859660	1.2054000	-1.1764250
H	-0.8859660	1.2054000	-1.1764250
H	0.8859660	-1.2054000	-1.1764250
H	-0.8859660	-1.2054000	-1.1764250
H	0.0000000	3.3132800	-0.1477200
H	0.0000000	-3.3132800	-0.1477200
H	-0.8842170	2.3593410	1.0577000
H	0.8842170	2.3593410	1.0577000
H	0.8842170	-2.3593410	1.0577000
H	-0.8842170	-2.3593410	1.0577000

@pcseg2.gbs

