%chk=etfo.chk
%mem=500mw
%nprocs=4
# b3lyp/gen opt freq CPHF(Grid=OneStep)

ethyl formate, B3LYP/pcseg-2

0 1
C      -2.183608    -0.287728     0.000000
C      -0.700967    -0.578865     0.000000
O       0.000000     0.691553     0.000000
C       1.335628     0.637886     0.000000
O       2.003089    -0.358865     0.000000
H      -2.740457    -1.225192     0.000000
H      -2.471015     0.280527     0.884023
H      -2.471015     0.280527    -0.884023
H      -0.392899    -1.142004    -0.880451
H      -0.392899    -1.142004     0.880451
H       1.737252     1.658883     0.000000

@pcseg2.gbs

--Link1--
%chk=etfo.chk
%mem=500mw
%nprocs=4
# rohf/gen geom=check guess=check

ethyl formate, ROHF/cc-pVTZ-F12

0 1

@ccpvtz-f12.gbs
