%chk=ethanol.chk
%mem=500mw
%nprocs=4
# b3lyp/gen opt freq CPHF(Grid=OneStep)

ethanol geom opt, B3LYP/pcseg-2

0 1
C       1.176458    -0.399722     0.000000
C       0.000000     0.553284     0.000000
O      -1.199837    -0.221095     0.000000
H      -1.955748     0.370364     0.000000
H       2.115389     0.155312     0.000000
H       1.152597    -1.037863     0.883257
H       1.152597    -1.037863    -0.883257
H       0.037553     1.198719     0.884794
H       0.037553     1.198719    -0.884794

@pcseg2.gbs

--Link1--
%chk=ethanol.chk
%mem=500mw
%nprocs=4
# rohf/gen geom=check guess=check

ethanol geom opt, ROHF/cc-pVTZ-F12

0 1

@ccpvtz-f12.gbs
