%chk=EtNHMe.chk
%mem=500mw
%nprocs=4
# b3lyp/gen opt freq CPHF(Grid=OneStep)

ethyl methyl amine, B3LYP/pcseg-2

0 1
N       0.535935    -0.483861    -0.113252
C       1.875669     0.071664    -0.004930
C      -0.523977     0.502678     0.048225
C      -1.899627    -0.143486    -0.026487
H       0.413834    -1.228906     0.561016
H       2.612885    -0.727635    -0.076476
H       2.056185     0.625239     0.929990
H       2.053357     0.759640    -0.833622
H      -0.429384     1.064070     0.993389
H      -0.418031     1.237380    -0.754893
H      -2.685946     0.605233     0.074444
H      -2.034815    -0.873244     0.775224
H      -2.032026    -0.659889    -0.977153

@pcseg2.gbs

--Link1--
%chk=EtNHMe.chk
%mem=500mw
%nprocs=4
# rohf/gen geom=check guess=check

ethyl methyl amine, ROHF/cc-pVTZ-F12

0 1

@ccpvtz-f12.gbs
