%mem=1000mw
%nprocs=12
# b3lyp/gen opt freq

methoxyethane, B3LYP/pcseg-2

0 1
C	1.3167960	1.2405730	0.0000000
O	0.0164540	0.7080800	0.0000000
C	0.0000000	-0.7032290	0.0000000
C	-1.4453210	-1.1723360	0.0000000
H	1.2274560	2.3299270	0.0000000
H	1.8877510	0.9322000	0.8911750
H	1.8877510	0.9322000	-0.8911750
H	0.5328530	-1.0907690	-0.8860170
H	0.5328530	-1.0907690	0.8860170
H	-1.4929460	-2.2654470	0.0000000
H	-1.9680970	-0.8010150	0.8859940
H	-1.9680970	-0.8010150	-0.8859940

@pcseg2.gbs

