%chk=etono.chk
%mem=500mw
%nprocs=4
# b3lyp/gen opt freq CPHF(Grid=OneStep)

ethyl nitrite, B3LYP/pcseg-2

0 1
C       0.646993    -0.564597     0.000000
O       0.000000     0.730049     0.000000
N      -1.393874     0.733745     0.000000
C       2.139285    -0.315940     0.000000
H       0.321916    -1.119333     0.881274
H       0.321916    -1.119333    -0.881274
H       2.667482    -1.269963     0.000000
H       2.443020     0.243316     0.883881
H       2.443020     0.243316    -0.883881
O      -1.894738    -0.333923     0.000000

@pcseg2.gbs

--Link1--
%chk=etono.chk
%mem=500mw
%nprocs=4
# rohf/gen geom=check guess=check

ethyl nitrite, ROHF/cc-pVTZ-F12

0 1

@ccpvtz-f12.gbs
