%mem=500mw
# b3lyp/gen opt freq

F2, B3LYP/pcseg-2

0 1
F
F 1 r

r 1.5

@/home/irikura/basis/pcseg2.gbs

