%mem=500mw
# b3lyp/gen opt freq

F2O, B3LYP/pcseg-2

0 1
O
F 1 r
F 1 r 2 a

r 1.5
a 100.

@pcseg2.gbs

