%mem=500mw
# b3lyp/gen opt freq

fluorine atom, B3LYP/pcseg-2

0 2
F

@pcseg2.gbs

