%mem=1000mw
%nprocs=12
# b3lyp/gen opt freq

2-fluoroethanol, B3LYP/pcseg-2

0 1
C	0.6914070	0.5889220	0.2691960
C	-0.7257910	0.5660710	-0.2705760
O	1.4281490	-0.5290060	-0.1822320
F	-1.3265390	-0.6106560	0.1587940
H	1.2074260	1.4869480	-0.0875100
H	0.6568280	0.6349650	1.3696220
H	-1.3140470	1.4164020	0.0954000
H	-0.7248040	0.5641200	-1.3668330
H	0.8945540	-1.3044420	0.0263160

@pcseg2.gbs

