%mem=1000mw
%nprocs=12
# b3lyp/gen opt freq

cyanogen fluoride, B3LYP/pcseg-2

0 1
F	0.0000000	0.0000000	0.9789440
C	0.0000000	0.0000000	-0.6560930
N	0.0000000	0.0000000	-1.8150700

@pcseg2.gbs

