%mem=500mw
%nprocs=4
# b3lyp/gen opt freq

fluoroformyl, B3LYP/pcseg-2

0 2
F	-1.0172450	-0.4256070	0.0000000
C	0.0000000	0.4193330	0.0000000
O	1.1444010	0.1643080	0.0000000

@pcseg2.gbs

