%mem=500mw
%nprocs=6
# b3lyp/gen opt freq

Fluorene, B3LYP/pcseg-2

0 1
C	0.0000000	0.0000000	1.8329040
C	0.0000000	1.1847410	0.8868380
C	0.0000000	-1.1847410	0.8868380
C	0.0000000	0.7348010	-0.4500850
C	0.0000000	-0.7348010	-0.4500850
C	0.0000000	2.5454170	1.1722460
C	0.0000000	-2.5454170	1.1722460
C	0.0000000	3.4617740	0.1145420
C	0.0000000	-3.4617740	0.1145420
C	0.0000000	3.0163000	-1.2120250
C	0.0000000	-3.0163000	-1.2120250
C	0.0000000	1.6509810	-1.5043940
C	0.0000000	-1.6509810	-1.5043940
H	0.8795210	0.0000000	2.4920450
H	-0.8795210	0.0000000	2.4920450
H	0.0000000	2.8978410	2.2012510
H	0.0000000	-2.8978410	2.2012510
H	0.0000000	4.5279510	0.3249680
H	0.0000000	-4.5279510	0.3249680
H	0.0000000	3.7403810	-2.0225430
H	0.0000000	-3.7403810	-2.0225430
H	0.0000000	1.3115540	-2.5371680
H	0.0000000	-1.3115540	-2.5371680

@pcseg2.gbs

