%chk=fno.chk
%mem=500mw
%nprocs=4
# b3lyp/gen opt freq CPHF(Grid=OneStep)

nitrosyl fluoride, B3LYP/pcseg-2

0 1
F      -0.951538    -0.630603     0.000000
N       0.000000     0.565232     0.000000
O       1.070480     0.214850     0.000000

@pcseg2.gbs

--Link1--
%chk=fno.chk
%mem=500mw
%nprocs=4
# rohf/gen geom=check guess=check

nitrosyl fluoride, ROHF/cc-pVTZ-F12

0 1

@ccpvtz-f12.gbs
