%mem=1000mw
%nprocs=12
# b3lyp/gen opt freq

nitrosyl fluoride, B3LYP/pcseg-2

0 1
F	-0.9542470	-0.6389550	0.0000000
N	0.0000000	0.5671580	0.0000000
O	1.0735280	0.2225610	0.0000000

@pcseg2.gbs

