%mem=500mw
%nprocs=4
# b3lyp/gen opt freq

oxygen monofluoride, B3LYP/pcseg-2

0 2
O
F 1 r

r 1.3

@pcseg2.gbs

