%mem=1000mw
%nprocs=12
# b3lyp/gen opt freq

fluoroperoxyl, B3LYP/pcseg-2

0 2
O	1.1344780	0.1594170	0.0000000
O	0.0000000	0.5565370	0.0000000
F	-1.0084250	-0.6364030	0.0000000

@pcseg2.gbs

