%mem=1000mw
%nprocs=12
# b3lyp/gen opt freq

fluorine peroxide, B3LYP/pcseg-2

0 1
F	0.5663890	1.3426720	-0.4846690
O	0.5663890	0.2728630	0.5452530
O	-0.5663890	-0.2728630	0.5452530
F	-0.5663890	-1.3426720	-0.4846690

@pcseg2.gbs

