%chk=fulvene.chk
%mem=500mw
%nprocs=4
# b3lyp/gen opt freq CPHF(Grid=OneStep)

fulvene, B3LYP/pcseg-2

0 1
C       0.000000     0.000000     0.758594
C       0.000000     0.000000     2.096538
C       0.000000     1.175613    -0.125702
C      -0.000000    -1.175613    -0.125702
C       0.000000     0.735843    -1.400148
C      -0.000000    -0.735843    -1.400148
H       0.000000     0.922633     2.661654
H      -0.000000    -0.922633     2.661654
H       0.000000     2.197562     0.218114
H      -0.000000    -2.197562     0.218114
H       0.000000     1.346571    -2.290063
H      -0.000000    -1.346571    -2.290063

@pcseg2.gbs

--Link1--
%chk=fulvene.chk
%mem=500mw
%nprocs=4
# rohf/gen geom=check guess=check

fulvene, ROHF/cc-pVTZ-F12

0 1

@ccpvtz-f12.gbs
