%mem=1000mw
%nprocs=12
# b3lyp/gen opt freq

fulvene, B3LYP/pcseg-2

0 1
C	0.0000000	0.0000000	0.7593820
C	0.0000000	0.0000000	2.0992490
C	0.0000000	1.1772980	-0.1260510
C	0.0000000	-1.1772980	-0.1260510
C	0.0000000	0.7374980	-1.4023800
C	0.0000000	-0.7374980	-1.4023800
H	0.0000000	0.9243290	2.6680060
H	0.0000000	-0.9243290	2.6680060
H	0.0000000	2.2003290	0.2232250
H	0.0000000	-2.2003290	0.2232250
H	0.0000000	1.3474350	-2.2965360
H	0.0000000	-1.3474350	-2.2965360

@pcseg2.gbs

