%chk=h.chk
%mem=500mw
%nprocs=4
# b3lyp/gen opt freq CPHF(Grid=OneStep)

hydrogen atom, B3LYP/pcseg-2

0 2
H       0.000000     0.000000     0.000000

@pcseg2.gbs

--Link1--
%chk=h.chk
%mem=500mw
%nprocs=4
# rohf/gen geom=check guess=check

hydrogen atom, ROHF/cc-pVTZ-F12

0 2

@ccpvtz-f12.gbs
