%mem=500mw
# b3lyp/gen opt freq

H2, B3LYP/pcseg-2

0 1
H
H 1 r

r 0.75

@/home/irikura/basis/pcseg2.gbs

