%mem=500mw
%nprocs=4
# b3lyp/gen opt freq 

hydrogen peroxide, B3LYP/pcseg-2

0 1
O	0.0000000	0.7235180	-0.0591300
O	0.0000000	-0.7235180	-0.0591300
H	0.7852450	0.9056670	0.4730400
H	-0.7852450	-0.9056670	0.4730400

@pcseg2.gbs

