%mem=500mw
# b3lyp/gen opt freq

H2O, B3LYP/pcseg-2

0 1
O
H 1 r
H 1 r 2 a

r 1.
a 105.

@pcseg2.gbs

