%mem=500mw
%nprocs=4
# b3lyp/gen opt freq

hydrogen sulfide, B3LYP/pcseg-2

0 1
S	0.0000000	0.0000000	0.1034930
H	0.0000000	0.9782450	-0.8279460
H	0.0000000	-0.9782450	-0.8279460

@pcseg2.gbs

