%mem=500mw
%nprocs=6
# b3lyp/gen opt freq symm=loose

sulfuric acid, B3LYP/pcseg-2

0 1
S	0.0000000	0.0000000	0.1689100
O	0.0000000	1.2736190	0.8355120
O	0.0000000	-1.2736190	0.8355120
O	1.2550840	-0.0533300	-0.8569450
O	-1.2550840	0.0533300	-0.8569450
H	-1.4661450	-0.8362470	-1.1798180
H	1.4661450	0.8362470	-1.1798180

@pcseg2.gbs

