%mem=500mw
# b3lyp/gen opt freq

hydrogen atom, B3LYP/pcseg-2

0 2
H

@pcseg2.gbs

