%mem=500mw
%nprocs=8
# b3lyp/gen opt freq

diacetylene, B3LYP/pcseg-2

0 1
C	0.0000000	0.0000000	0.6807090
C	0.0000000	0.0000000	-0.6807090
C	0.0000000	0.0000000	1.8873850
C	0.0000000	0.0000000	-1.8873850
H	0.0000000	0.0000000	2.9492650
H	0.0000000	0.0000000	-2.9492650

@pcseg2.gbs

