%mem=1000mw
%nprocs=12
# b3lyp/gen opt freq

chloroacetylene, B3LYP/pcseg-2

0 1
C	0.0000000	0.0000000	-1.8147770
C	0.0000000	0.0000000	-0.6139300
Cl	0.0000000	0.0000000	1.0263860
H	0.0000000	0.0000000	-2.8763150

@pcseg2.gbs

