%chk=hcccho.chk
%mem=500mw
%nprocs=4
# b3lyp/gen opt freq CPHF(Grid=OneStep)

2-propynal, B3LYP/pcseg-2

0 1
C       0.497717    -0.669091    -0.000000
O      -0.208798    -1.647193     0.000000
H       1.597983    -0.752547    -0.000000
C      -0.000000     0.687335     0.000000
C      -0.367159     1.830733     0.000000
H      -0.710942     2.836232     0.000000

@pcseg2.gbs

--Link1--
%chk=hcccho.chk
%mem=500mw
%nprocs=4
# rohf/gen geom=check guess=check

2-propynal, ROHF/cc-pVTZ-F12

0 1

@ccpvtz-f12.gbs
