%mem=1000mw
%nprocs=12
# b3lyp/gen opt freq

cyanoacetylene, B3LYP/pcseg-2

0 1
N	0.0000000	0.0000000	1.8967940
C	0.0000000	0.0000000	0.7361690
C	0.0000000	0.0000000	-0.6311660
C	0.0000000	0.0000000	-1.8349160
H	0.0000000	0.0000000	-2.8980800

@pcseg2.gbs

