%mem=1000mw
%nprocs=12
# b3lyp/gen opt freq

fluoroacetylene, B3LYP/pcseg-2

0 1
C	0.0000000	0.0000000	-0.0921250
C	0.0000000	0.0000000	-1.2858700
F	0.0000000	0.0000000	1.1793570
H	0.0000000	0.0000000	-2.3462390

@pcseg2.gbs

