%mem=1000mw
%nprocs=12
# b3lyp/gen opt=calcall 

cyanomethylene, B3LYP/pcseg-2

0 3
C	0.0639480	-1.2142600	0.0000000
C	0.0000000	0.0847050	0.0000000
N	-0.1365220	1.2760300	0.0000000
H	0.5719640	-2.1548720	0.0000000

@pcseg2.gbs

