%mem=1000mw
%nprocs=12
# b3lyp/gen opt freq

ketenyl, B3LYP/pcseg-2

0 2
C	0.0000000	0.0461670	0.0000000
C	1.0750570	-0.6685010	0.0000000
O	-1.0723730	0.5248060	0.0000000
H	2.1286420	-0.4644380	0.0000000

@pcseg2.gbs

