%mem=500mw
# b3lyp/gen opt freq

HCl, B3LYP/pcseg-2

0 1
Cl
H 1 1.3

@pcseg2.gbs

