%mem=1000mw
%nprocs=12
# b3lyp/gen opt freq

perchloric acid, B3LYP/pcseg-2

0 1
Cl	-0.1518530	0.0107160	0.0000000
O	-0.4953910	1.4317850	0.0000000
O	1.5762160	0.0890320	0.0000000
O	-0.4953910	-0.7190510	1.2327920
O	-0.4953910	-0.7190510	-1.2327920
H	1.8611440	-0.8439030	0.0000000

@pcseg2.gbs

