%mem=1000mw
%nprocs=12
# b3lyp/gen opt freq

HClO, B3LYP/pcseg-2

0 1
Cl        -0.473369       0.045282       0.000000
O          1.096830      -0.024252       0.000000
H         -0.982842      -1.186267       0.000000

@pcseg2.gbs

