%mem=500mw
# b3lyp/gen opt freq

HCN, B3LYP/pcseg-2

0 1
H 0. 0. 0.
C 0. 0. 1.
N 0. 0. 2.2

@pcseg2.gbs

