%mem=1000mw
%nprocs=12
# b3lyp/gen opt freq

aminomethylene, B3LYP/pcseg-2

0 1
C	0.0625090	0.7844870	0.0000000
N	0.0625090	-0.5220600	0.0000000
H	-0.9983060	1.0976660	0.0000000
H	-0.7567550	-1.1290630	0.0000000
H	0.9424480	-1.0211060	0.0000000

@pcseg2.gbs

