%mem=1000mw
%nprocs=12
# b3lyp/gen opt freq

fulminic acid, B3LYP/pcseg-2

0 1
O	0.0000000	0.0000000	-1.1808610
N	0.0000000	0.0000000	0.0195760
C	0.0000000	0.0000000	1.1785850
H	0.0000000	0.0000000	2.2383370

@pcseg2.gbs

