%mem=1000mw
%nprocs=12
# b3lyp/gen opt=calcall 

formate radical, B3LYP/pcseg-2

0 2
C          0.000000       0.236144       0.000000
H          0.000000       1.400244       0.000000
O          1.166412      -0.132696       0.000000
O         -1.166412      -0.132696       0.000000

@pcseg2.gbs

