%mem=500mw
%nprocs=6
# b3lyp/gen opt freq 

hydroxyacetaldehyde, B3LYP/pcseg-2

0 1
C	0.0000000	0.9324310	0.0000000
C	0.9274320	-0.2578870	0.0000000
O	-1.3474450	0.5546400	0.0000000
O	0.5103970	-1.3903530	0.0000000
H	-1.3653400	-0.4152900	0.0000000
H	0.2408860	1.5486580	0.8811930
H	0.2408860	1.5486580	-0.8811930
H	2.0153650	-0.0435850	0.0000000

@pcseg2.gbs

