%mem=1000mw
%nprocs=12
# b3lyp/gen opt freq

hydroxymethylene, B3LYP/pcseg-2

0 1
C         -0.736661      -0.124032       0.000000
O          0.560617       0.083611       0.000000
H         -1.131890       0.927438       0.000000
H          1.005780      -0.777590       0.000000

@pcseg2.gbs

