%mem=500mw
%nprocs=4
# b3lyp/gen opt freq

formic acid, B3LYP/pcseg-2

0 1
C	0.0000000	0.4209460	0.0000000
O	-1.0284200	-0.4471320	0.0000000
O	1.1585650	0.1180590	0.0000000
H	-0.3919370	1.4474160	0.0000000
H	-0.6492220	-1.3405050	0.0000000

@/home/irikura/basis/pcseg2.gbs

