%chk=heptane.chk
%mem=1000mw
%nprocs=4
# b3lyp/gen opt freq CPHF(Grid=OneStep)

n-heptane, B3LYP/pcseg-2

0 1
C      -0.000000    -0.000000     0.493007
C      -0.000000     1.280166    -0.343000
C      -0.000000    -1.280166    -0.343000
C      -0.000000     2.560826     0.492764
C      -0.000000    -2.560826     0.492764
C      -0.000000     3.834102    -0.351543
C      -0.000000    -3.834102    -0.351543
H      -0.874451     0.000000     1.152324
H       0.874451    -0.000000     1.152324
H      -0.874406     1.281350    -1.002548
H       0.874406     1.281350    -1.002548
H       0.874406    -1.281350    -1.002548
H      -0.874406    -1.281350    -1.002548
H       0.873835     2.560116     1.151303
H      -0.873835     2.560116     1.151303
H      -0.873835    -2.560116     1.151303
H       0.873835    -2.560116     1.151303
H      -0.000000     4.728398     0.273114
H       0.880524     3.880139    -0.995646
H      -0.880524     3.880139    -0.995646
H      -0.000000    -4.728398     0.273114
H      -0.880524    -3.880139    -0.995646
H       0.880524    -3.880139    -0.995646

@pcseg2.gbs

--Link1--
%chk=heptane.chk
%mem=1000mw
%nprocs=4
# rohf/gen geom=check guess=check

n-heptane, ROHF/cc-pVTZ-F12

0 1

@ccpvtz-f12.gbs
