%mem=1000mw
%nprocs=12
# b3lyp/gen opt freq

n-heptane, B3LYP/pcseg-2

0 1
C	0.0000000	0.0000000	0.4949800
C	0.0000000	1.2817370	-0.3442420
C	0.0000000	-1.2817370	-0.3442420
C	0.0000000	2.5643870	0.4942290
C	0.0000000	-2.5643870	0.4942290
C	0.0000000	3.8395150	-0.3524720
C	0.0000000	-3.8395150	-0.3524720
H	-0.8768710	0.0000000	1.1578360
H	0.8768710	0.0000000	1.1578360
H	-0.8767790	1.2825520	-1.0073290
H	0.8767790	1.2825520	-1.0073290
H	0.8767790	-1.2825520	-1.0073290
H	-0.8767790	-1.2825520	-1.0073290
H	0.8764150	2.5633410	1.1561210
H	-0.8764150	2.5633410	1.1561210
H	-0.8764150	-2.5633410	1.1561210
H	0.8764150	-2.5633410	1.1561210
H	0.0000000	4.7375480	0.2735520
H	0.8832960	3.8852600	-0.9995030
H	-0.8832960	3.8852600	-0.9995030
H	0.0000000	-4.7375480	0.2735520
H	-0.8832960	-3.8852600	-0.9995030
H	0.8832960	-3.8852600	-0.9995030

@pcseg2.gbs

