%mem=1000mw
%nprocs=12
# b3lyp/gen opt freq

n-hexane, B3LYP/pcseg-2

0 1
C	1.3947150	2.9100120	0.0000000
C	-1.3947150	-2.9100120	0.0000000
C	0.0000000	0.7661520	0.0000000
C	0.0000000	-0.7661520	0.0000000
C	-1.4050030	-1.3785980	0.0000000
C	1.4050030	1.3785980	0.0000000
H	-2.4104440	-3.3181680	0.0000000
H	2.4104440	3.3181680	0.0000000
H	0.8781340	3.3016800	0.8835450
H	0.8781340	3.3016800	-0.8835450
H	-0.8781340	-3.3016800	-0.8835450
H	-0.8781340	-3.3016800	0.8835450
H	1.9575600	1.0157390	-0.8768820
H	1.9575600	1.0157390	0.8768820
H	-1.9575600	-1.0157390	-0.8768820
H	-1.9575600	-1.0157390	0.8768820
H	-0.5535670	1.1297530	0.8772780
H	-0.5535670	1.1297530	-0.8772780
H	0.5535670	-1.1297530	-0.8772780
H	0.5535670	-1.1297530	0.8772780

@pcseg2.gbs

