%chk=hexadiyne14.chk
%mem=500mw
%nprocs=4
# b3lyp/gen opt freq CPHF(Grid=OneStep)

1,4-hexadiyne, B3LYP/pcseg-2

0 1
C      -1.366516    -2.606194     0.000000
C      -1.346804    -1.408428     0.000000
C      -1.341274     0.055906     0.000000
C       0.000000     0.643407     0.000000
C       1.095008     1.133175     0.000000
C       2.427650     1.718442     0.000000
H      -1.377693    -3.667353     0.000000
H      -1.896438     0.412423     0.873271
H      -1.896438     0.412423    -0.873271
H       2.584143     2.341541    -0.881968
H       3.193895     0.941569     0.000000
H       2.584143     2.341541     0.881968

@pcseg2.gbs

--Link1--
%chk=hexadiyne14.chk
%mem=500mw
%nprocs=4
# rohf/gen geom=check guess=check

1,4-hexadiyne, ROHF/cc-pVTZ-F12

0 1

@ccpvtz-f12.gbs
