%chk=hexadiyne15.chk
%mem=500mw
%nprocs=4
# b3lyp/gen opt freq CPHF(Grid=OneStep)

1,5-hexadiyne, B3LYP/pcseg-2

0 1
C       0.417659     0.651988     0.000000
C      -0.417659    -0.651988     0.000000
C      -0.417659     1.845190     0.000000
C      -1.124721     2.814098     0.000000
C       0.417659    -1.845190     0.000000
C       1.124721    -2.814098     0.000000
H      -1.741667     3.677670     0.000000
H       1.741667    -3.677670     0.000000
H       1.070665     0.658633     0.875076
H      -1.070665    -0.658633    -0.875076
H       1.070665     0.658633    -0.875076
H      -1.070665    -0.658633     0.875076

@pcseg2.gbs

--Link1--
%chk=hexadiyne15.chk
%mem=500mw
%nprocs=4
# rohf/gen geom=check guess=check

1,5-hexadiyne, ROHF/cc-pVTZ-F12

0 1

@ccpvtz-f12.gbs
