%mem=1000mw
%nprocs=12
# b3lyp/gen opt freq

1,5-hexadiyne, B3LYP/pcseg-2

0 1
C          0.485060      -0.605850       0.000000
C         -0.485060       0.605850       0.000000
C          1.881850      -0.192617       0.000000
C          3.024329       0.180538       0.000000
C         -1.881850       0.192617       0.000000
C         -3.024329      -0.180538       0.000000
H          4.038864       0.493693       0.000000
H         -4.038864      -0.493693       0.000000
H          0.276664      -1.229115       0.876994
H         -0.276664       1.229115      -0.876994
H          0.276664      -1.229115      -0.876994
H         -0.276664       1.229115       0.876994

@pcseg2.gbs

