%mem=1000mw
%nprocs=12
# b3lyp/gen opt=cart freq

2,4-hexadiyne, B3LYP/pcseg-2

0 1
 C                 -0.00000000   -0.00000000    1.89054300
 C                 -0.00000000   -0.00000000    0.68018400
 C                 -0.00000000   -0.00000000   -0.68018400
 C                 -0.00000000   -0.00000000   -1.89054300
 C                 -0.00000000   -0.00000000    3.34254000
 H                  0.00000000    1.01751433    3.73984700
 H                 -0.88119326   -0.50875717    3.73984700
 H                  0.88119326   -0.50875717    3.73984700
 C                 -0.00000000   -0.00000000   -3.34254000
 H                  0.88119326    0.50875717   -3.73984700
 H                 -0.88119326    0.50875717   -3.73984700
 H                 -0.00000000   -1.01751433   -3.73984700

@pcseg2.gbs

