%chk=hexadiyne13.chk
%mem=500mw
%nprocs=4
# b3lyp/gen opt freq CPHF(Grid=OneStep)

1,3-hexadiyne, B3LYP/pcseg-2

0 1
C       2.144905    -2.559260     0.000000
C       1.458804    -1.568089     0.000000
C       0.683440    -0.446880     0.000000
C       0.000000     0.548821     0.000000
C      -0.841702     1.734703     0.000000
C      -2.345113     1.413513     0.000000
H       2.748386    -3.431903     0.000000
H      -0.594491     2.343853     0.874020
H      -0.594491     2.343853    -0.874020
H      -2.924931     2.336343     0.000000
H      -2.618240     0.835505     0.881659
H      -2.618240     0.835505    -0.881659

@pcseg2.gbs

--Link1--
%chk=hexadiyne13.chk
%mem=500mw
%nprocs=4
# rohf/gen geom=check guess=check

1,3-hexadiyne, ROHF/cc-pVTZ-F12

0 1

@ccpvtz-f12.gbs
