%mem=500mw
# b3lyp/gen opt freq

HF, B3LYP/pcseg-2

0 1
H
F 1 r

r 1.

@pcseg2.gbs

