%mem=1000mw
%nprocs=12
# b3lyp/gen opt freq

hydrazoic acid, B3LYP/pcseg-2

0 1
N	0.0934160	-1.1244910	0.0000000
N	0.0000000	0.1098000	0.0000000
N	-0.2471100	1.2147860	0.0000000
H	1.0758550	-1.4006620	0.0000000

@pcseg2.gbs

