%chk=hn3.chk
%mem=500mw
%nprocs=4
# b3lyp/gen opt freq CPHF(Grid=OneStep)

hydrazoic acid, B3LYP/pcseg-2

0 1
N       0.085190    -1.120874     0.000000
N       0.000000     0.111155     0.000000
N      -0.236553     1.211540     0.000000
H       1.059537    -1.412756     0.000000

@pcseg2.gbs

--Link1--
%chk=hn3.chk
%mem=500mw
%nprocs=4
# rohf/gen geom=check guess=check

hydrazoic acid, ROHF/cc-pVTZ-F12

0 1

@ccpvtz-f12.gbs
