%mem=1000mw
%nprocs=12
# b3lyp/gen opt freq

hydrogen isocyanide, B3LYP/pcseg-2

0 1
C	0.0000000	0.0000000	-0.7396350
N	0.0000000	0.0000000	0.4302560
H	0.0000000	0.0000000	1.4260210

@pcseg2.gbs

