%chk=hncn.chk
%mem=500mw
%nprocs=4
# b3lyp/gen opt freq CPHF(Grid=OneStep)

cyanoaminyl, B3LYP/pcseg-2

0 2
C       0.000000     0.109431    -0.000000
N      -0.070387     1.295039    -0.000000
N      -0.053065    -1.159519     0.000000
H       0.864158    -1.605227     0.000000

@pcseg2.gbs

--Link1--
%chk=hncn.chk
%mem=500mw
%nprocs=4
# rohf/gen geom=check 

cyanoaminyl, ROHF/cc-pVTZ-F12

0 2

@ccpvtz-f12.gbs
