%mem=1000mw
%nprocs=12
# b3lyp/gen opt freq

cyanoaminyl, B3LYP/pcseg-2

0 2
C          0.068830       0.022410       0.000000
N          1.262207       0.001518       0.000000
N         -1.200762      -0.080235       0.000000
H         -1.673287       0.826884       0.000000

@pcseg2.gbs

