%mem=1000mw
%nprocs=12
# b3lyp/gen opt freq

isocyanic acid, B3LYP/pcseg-2

0 1
H	1.3641900	-1.3721540	0.0000000
N	0.3965150	-1.0980430	0.0000000
C	0.0000000	0.0489630	0.0000000
O	-0.5174750	1.0955840	0.0000000

@pcseg2.gbs

