%mem=500mw
%nprocs=6
# b3lyp/gen opt freq

trans-diazene, B3LYP/pcseg-2

0 1
N          0.612154      -0.104001       0.000000
N         -0.612154       0.104001       0.000000
H          1.067855       0.828370       0.000000
H         -1.067855      -0.828370       0.000000

@pcseg2.gbs

