%mem=1000mw
%nprocs=12
# b3lyp/gen opt freq symm=loose

nitryl hydride (H-NO2), B3LYP/pcseg-2

0 1
N          0.000000       0.336791       0.000000
O         -1.095170      -0.190940       0.000000
O          1.095170      -0.190940       0.000000
H         -0.000000       1.381218       0.000000

@pcseg2.gbs

