%mem=1000mw
%nprocs=12
# b3lyp/gen opt freq

nitric acid, B3LYP/pcseg-2

0 1
N	0.0000000	0.1522840	0.0000000
O	-0.2701090	-1.2261760	0.0000000
O	1.1721590	0.4552710	0.0000000
O	-0.9796850	0.8394830	0.0000000
H	0.6210780	-1.6146050	0.0000000

@pcseg2.gbs

