%chk=hno3.chk
%mem=500mw
%nprocs=4
# b3lyp/gen opt freq CPHF(Grid=OneStep)

nitric acid, B3LYP/pcseg-2

0 1
N       0.000000     0.155135     0.000000
O      -0.269789    -1.229910     0.000000
O       1.168978     0.458360     0.000000
O      -0.976105     0.839226     0.000000
H       0.615327    -1.627348     0.000000

@pcseg2.gbs

--Link1--
%chk=hno3.chk
%mem=500mw
%nprocs=4
# rohf/gen geom=check guess=check

nitric acid, ROHF/cc-pVTZ-F12

0 1

@ccpvtz-f12.gbs
