%mem=500mw
# b3lyp/gen opt freq

HNO, B3LYP/pcseg-2

0 1
N
H 1 1.
O 1 1.3 2 120.

@pcseg2.gbs

