%chk=ho2.chk
%mem=500mw
%nprocs=4
# b3lyp/gen opt freq CPHF(Grid=OneStep)

HO2, B3LYP/pcseg-2

0 2
O       0.055255    -0.609221    -0.000000
H      -0.884080    -0.868356    -0.000000
O       0.055255     0.717765     0.000000

@pcseg2.gbs

--Link1--
%chk=ho2.chk
%mem=500mw
%nprocs=4
# rohf/gen geom=check guess=check

HO2, ROHF/cc-pVTZ-F12

0 2

@ccpvtz-f12.gbs
