%mem=1000mw
%nprocs=12
# b3lyp/gen opt freq

chlorous acid, B3LYP/pcseg-2

0 1
Cl	-0.1415030	-0.4423570	0.0181840
O	1.3992950	0.3152500	-0.1194140
O	-1.2953910	0.5428110	-0.0158200
H	1.5743090	0.6555800	0.7727580

@pcseg2.gbs

