%mem=500mw
# b3lyp/gen opt freq

HOCl, B3LYP/pcseg-2

0 1
O
H 1 1.
Cl 1 1.7 2 100.

@pcseg2.gbs

