%chk=hoclo.chk
%mem=500mw
%nprocs=4
# b3lyp/gen opt freq CPHF(Grid=OneStep)

chlorous acid, B3LYP/pcseg-2

0 1
Cl     -0.143099    -0.448449     0.018365
O       1.390635     0.317150    -0.118849
O      -1.282373     0.552288    -0.016080
H       1.566581     0.668119     0.767222

@pcseg2.gbs

--Link1--
%chk=hoclo.chk
%mem=500mw
%nprocs=4
# rohf/gen geom=check guess=check

chlorous acid, ROHF/cc-pVTZ-F12

0 1

@ccpvtz-f12.gbs
