%mem=500mw
%nprocs=4
# b3lyp/gen opt freq

hydroxyformyl, B3LYP/pcseg-2

0 2
C	0.0000000	0.4085900	0.0000000
O	-0.9392290	-0.5460210	0.0000000
O	1.1654300	0.2557830	0.0000000
H	-1.8096080	-0.1296410	0.0000000

@pcseg2.gbs

