%mem=500mw
%nprocs=2
# b3lyp/gen opt freq

HOF, B3LYP/pcseg-2

0 1
O
F 1 r
H 1 rh 2 a

r 1.5
rh 1.
a 109.

@pcseg2.gbs

