%chk=hof.chk
%mem=500mw
%nprocs=4
# b3lyp/gen opt freq CPHF(Grid=OneStep)

HOF, B3LYP/pcseg-2

0 1
O       0.053275     0.707131    -0.000000
F       0.053275    -0.723166     0.000000
H      -0.905671     0.851450     0.000000

@pcseg2.gbs

--Link1--
%chk=hof.chk
%mem=500mw
%nprocs=4
# rohf/gen geom=check guess=check

HOF, ROHF/cc-pVTZ-F12

0 1

@ccpvtz-f12.gbs
