%mem=1000mw
%nprocs=12
# b3lyp/gen opt freq

isofulminic acid, B3LYP/pcseg-2

0 1
N          0.203232       0.037871       0.000000
O         -1.119816      -0.075269       0.000000
C          1.377923      -0.013919       0.000000
H         -1.458175       0.834115       0.000000

@pcseg2.gbs

