%mem=1000mw
%nprocs=12
# b3lyp/gen opt freq

nitrous acid, B3LYP/pcseg-2

0 1
H	1.7657770	-0.1894510	0.0000000
O	0.8915010	-0.6100700	0.0000000
N	0.0000000	0.5204890	0.0000000
O	-1.1122240	0.1783240	0.0000000

@pcseg2.gbs

