%chk=hoocl.chk
%mem=500mw
%nprocs=4
# b3lyp/gen opt freq CPHF(Grid=OneStep)

chlorine hydroperoxide, B3LYP/pcseg-2

0 1
O      -1.525426    -0.314232    -0.122874
O      -0.503238     0.647995     0.028011
Cl      1.054643    -0.123106    -0.002069
H      -1.699632    -0.577312     0.794068

@pcseg2.gbs

--Link1--
%chk=hoocl.chk
%mem=500mw
%nprocs=4
# rohf/gen geom=check guess=check

chlorine hydroperoxide, ROHF/cc-pVTZ-F12

0 1

@ccpvtz-f12.gbs
