%mem=1000mw
%nprocs=12
# b3lyp/gen opt freq

chlorine hydroperoxide, B3LYP/pcseg-2

0 1
O         -1.559420      -0.349544      -0.066022
O         -0.564546       0.632500       0.013928
Cl         1.020314      -0.112453      -0.001160
H         -1.693322      -0.588915       0.867017

@pcseg2.gbs

