%mem=1000mw
%nprocs=12
# b3lyp/gen opt freq

peroxynitric acid, B3LYP/pcseg-2

0 1
N	0.6340750	0.0784810	-0.0001510
O	-0.6272070	-0.7813500	0.0531980
O	-1.7501920	0.0307820	-0.1375960
O	1.5994820	-0.6159420	-0.0145230
O	0.4676980	1.2559560	0.0039940
H	-1.9567780	0.3350660	0.7604710

@pcseg2.gbs

