%chk=hoono.chk
%mem=500mw
%nprocs=4
# b3lyp/gen opt freq CPHF(Grid=OneStep)

peroxynitrous acid, B3LYP/pcseg-2

0 1
O      -0.603144    -1.167815     0.000000
N      -0.992753    -0.051720     0.000000
O      -0.000000     0.906366    -0.000000
O       1.327571     0.379949    -0.000000
H       1.153859    -0.585958    -0.000000

@pcseg2.gbs

--Link1--
%chk=hoono.chk
%mem=500mw
%nprocs=4
# rohf/gen geom=check guess=check

peroxynitrous acid, ROHF/cc-pVTZ-F12

0 1

@ccpvtz-f12.gbs
