%chk=iBu.chk
%mem=500mw
%nprocs=4
# b3lyp/gen opt freq CPHF(Grid=OneStep)

iso-butyl, B3LYP/pcseg-2

0 2
C      -0.264867     0.229937     0.000000
C       0.852188     1.214654    -0.000000
H      -1.212409     0.795225     0.000000
H       1.223269     1.632908     0.925610
H       1.223269     1.632908    -0.925610
C      -0.264867    -0.633637    -1.268924
C      -0.264867    -0.633637     1.268924
H       0.635281    -1.249420    -1.316575
H      -1.129959    -1.298098    -1.289670
H      -0.295150    -0.014951    -2.166980
H       0.635281    -1.249420     1.316575
H      -1.129959    -1.298098     1.289670
H      -0.295150    -0.014951     2.166980

@pcseg2.gbs

--Link1--
%chk=iBu.chk
%mem=500mw
%nprocs=4
# rohf/gen geom=check guess=check

iso-butyl, ROHF/cc-pVTZ-F12

0 2

@ccpvtz-f12.gbs
