%mem=500mw
%nprocs=4
# b3lyp/gen opt freq 

i-butane, B3LYP/pcseg-2

0 1
C	0.0000000	0.0000000	0.3721390
H	0.0000000	0.0000000	1.4678940
C	0.0000000	1.4581560	-0.0956170
C	1.2628000	-0.7290780	-0.0956170
C	-1.2628000	-0.7290780	-0.0956170
H	0.0000000	1.5158990	-1.1872950
H	1.3128070	-0.7579500	-1.1872950
H	-1.3128070	-0.7579500	-1.1872950
H	0.8819900	1.9913810	0.2637110
H	-0.8819900	1.9913810	0.2637110
H	1.2835910	-1.7595160	0.2637110
H	2.1655810	-0.2318640	0.2637110
H	-2.1655810	-0.2318640	0.2637110
H	-1.2835910	-1.7595160	0.2637110

@pcseg2.gbs

