%chk=ibutane.chk
%mem=500mw
%nprocs=4
# b3lyp/gen opt freq CPHF(Grid=OneStep)

i-butane, B3LYP/pcseg-2

0 1
C       0.000000     0.000000     0.371305
H       0.000000     0.000000     1.466599
C       0.000000     1.458003    -0.095462
C       1.262668    -0.729001    -0.095462
C      -1.262668    -0.729001    -0.095462
H       0.000000     1.515531    -1.186988
H       1.312488    -0.757765    -1.186988
H      -1.312488    -0.757765    -1.186988
H       0.882095     1.990712     0.264143
H      -0.882095     1.990712     0.264143
H       1.282959    -1.759272     0.264143
H       2.165054    -0.231439     0.264143
H      -2.165054    -0.231439     0.264143
H      -1.282959    -1.759272     0.264143

@pcseg2.gbs

--Link1--
%chk=ibutane.chk
%mem=500mw
%nprocs=4
# rohf/gen geom=check guess=check

i-butane, ROHF/cc-pVTZ-F12

0 1

@ccpvtz-f12.gbs
