%chk=iPr.chk
%mem=500mw
%nprocs=4
# b3lyp/gen opt freq CPHF(Grid=OneStep)

iso-propyl, B3LYP/pcseg-2

0 2
C      -0.008712     0.534881    -0.000000
C      -0.008712    -0.197098     1.293644
C      -0.008712    -0.197098    -1.293644
H       0.174556     1.600986    -0.000000
H      -0.777665    -0.976774     1.314782
H      -0.777665    -0.976774    -1.314782
H       0.946673    -0.712990     1.474368
H      -0.177873     0.467218     2.140945
H       0.946673    -0.712990    -1.474368
H      -0.177873     0.467218    -2.140945

@pcseg2.gbs

--Link1--
%chk=iPr.chk
%mem=500mw
%nprocs=4
# rohf/gen geom=check guess=check

iso-propyl, ROHF/cc-pVTZ-F12

0 2

@ccpvtz-f12.gbs
