%mem=1000mw
%nprocs=12
# b3lyp/gen opt freq

iso-propyl, B3LYP/pcseg-2

0 2
C	-0.0115000	0.5327640	0.0000000
C	-0.0115000	-0.1968560	1.2998770
C	-0.0115000	-0.1968560	-1.2998770
H	0.2368360	1.5901220	0.0000000
H	-0.7167920	-1.0382550	1.2904200
H	-0.7167920	-1.0382550	-1.2904200
H	0.9765110	-0.6312060	1.5360360
H	-0.2746330	0.4572420	2.1372500
H	0.9765110	-0.6312060	-1.5360360
H	-0.2746330	0.4572420	-2.1372500

@pcseg2.gbs

