%chk=isobutene.chk
%mem=500mw
%nprocs=4
# b3lyp/gen opt freq CPHF(Grid=OneStep)

isobutene, B3LYP/pcseg-2

0 1
C       0.000000     0.000000     0.124014
C       0.000000     0.000000     1.454677
H       0.000000     0.921724     2.022016
H      -0.000000    -0.921724     2.022016
C       0.000000     1.272525    -0.676943
C      -0.000000    -1.272525    -0.676943
H       0.000000     2.153978    -0.037787
H       0.876253     1.321507    -1.329322
H      -0.876253     1.321507    -1.329322
H      -0.000000    -2.153978    -0.037787
H      -0.876253    -1.321507    -1.329322
H       0.876253    -1.321507    -1.329322

@pcseg2.gbs

--Link1--
%chk=isobutene.chk
%mem=500mw
%nprocs=4
# rohf/gen geom=check guess=check

isobutene, ROHF/cc-pVTZ-F12

0 1

@ccpvtz-f12.gbs
