%mem=1000mw
%nprocs=12
# b3lyp/gen opt freq

2,2,4-trimethylpentane, B3LYP/pcseg-2

0 1
C   3.4381    2.4885    1.4473 
C   2.0422    2.1108    2.0186 
C   4.6836    2.2627    2.3465 
C   1.6780    3.0340    3.1986 
C   1.9847    0.6434    2.4833 
C   1.0033    2.3148    0.8970 
C   5.3791    0.9216    2.0570 
C   5.6876    3.4165    2.1861 
H   3.5870    1.9465    0.5016 
H   3.3887    3.5516    1.1717 
H   4.3648    2.2543    3.3983 
H   1.6777    4.0871    2.8904 
H   0.6774    2.7986    3.5818 
H   2.3804    2.9302    4.0337 
H   2.6693    0.4522    3.3171 
H   2.2425   -0.0444    1.6686 
H   0.9737    0.3882    2.8249 
H   1.2085    1.6581    0.0425 
H  -0.0103    2.0926    1.2534 
H   1.0097    3.3497    0.5328 
H   5.7638    0.9014    1.0286 
H   4.7014    0.0701    2.1727 
H   6.2300    0.7658    2.7314 
H   6.5759    3.2628    2.8108 
H   6.0251    3.4996    1.1444 
H   5.2401    4.3772    2.4674 

@pcseg2.gbs

