%chk=isourea.chk
%mem=500mw
%nprocs=4
# b3lyp/gen opt freq CPHF(Grid=OneStep)

isourea, B3LYP/pcseg-2

0 1
C       0.050420     0.093354    -0.002014
O       0.714936    -1.088527     0.005447
N      -1.303640    -0.124928    -0.063888
N       0.698082     1.185464     0.008353
H      -1.906629     0.633649     0.196053
H      -1.628939    -1.046617     0.171672
H       0.098859     2.002071    -0.010546
H       1.653608    -0.864759     0.000073

@pcseg2.gbs

--Link1--
%chk=isourea.chk
%mem=500mw
%nprocs=4
# rohf/gen geom=check guess=check

isourea, ROHF/cc-pVTZ-F12

0 1

@ccpvtz-f12.gbs
