%mem=500mw
# b3lyp/gen opt freq

Ketene, B3LYP/pcseg-2

0 1
C 0. 0. 0.
C 0. 0. 1.4
O 0. 0. 2.7
H 0. 1. 0.
H 0. -1. 0.

@pcseg2.gbs

