%chk=Me2N.chk
%mem=500mw
%nprocs=4
# b3lyp/gen opt freq CPHF(Grid=OneStep)

dimethylaminyl, B3LYP/pcseg-2

0 2
N       0.000000     0.000000     0.630860
C      -0.000000     1.191810    -0.169225
C      -0.000000    -1.191810    -0.169225
H      -0.000000     2.077626     0.463452
H       0.880004     1.228826    -0.828056
H      -0.880004     1.228826    -0.828056
H      -0.000000    -2.077626     0.463452
H       0.880004    -1.228826    -0.828056
H      -0.880004    -1.228826    -0.828056

@pcseg2.gbs

--Link1--
%chk=Me2N.chk
%mem=500mw
%nprocs=4
# rohf/gen geom=check guess=check

dimethylaminyl, ROHF/cc-pVTZ-F12

0 2

@ccpvtz-f12.gbs
