%mem=1000mw
%nprocs=12
# b3lyp/gen opt freq CPHF(Grid=OneStep)

trimethylsiloxyl, B3LYP/pcseg-2

0 2
Si         0.035171       0.000000       0.025726
O         -0.621515       0.000000       1.550749
C         -1.537090       0.000000      -1.035586
C          1.053918       1.544582      -0.295194
C          1.053918      -1.544582      -0.295194
H         -1.234077       0.000000      -2.089239
H         -2.143439      -0.888747      -0.847445
H         -2.143439       0.888747      -0.847445
H          1.437352       1.554054      -1.321767
H          0.453737       2.447261      -0.147143
H          1.915283       1.599758       0.378243
H          1.437352      -1.554054      -1.321767
H          0.453737      -2.447261      -0.147143
H          1.915283      -1.599758       0.378243

@pcseg2.gbs

