%chk=Me3SiOH.chk
%mem=1000mw
%nprocs=4
# b3lyp/gen opt freq CPHF(Grid=OneStep)

trimethylsilanol, B3LYP/pcseg-2

0 1
Si      0.007479     0.031626     0.000000
O       0.594109     1.590023     0.000000
C      -1.851781     0.222437    -0.000000
C       0.594109    -0.881072     1.533515
C       0.594109    -0.881072    -1.533515
H      -2.350363    -0.748794    -0.000000
H      -2.187204     0.771497     0.881322
H      -2.187204     0.771497    -0.881322
H       0.189257    -1.894856     1.570858
H       1.683125    -0.964796     1.557541
H       0.281103    -0.363446     2.442038
H       0.189257    -1.894856    -1.570858
H       1.683125    -0.964796    -1.557541
H       0.281103    -0.363446    -2.442038
H       1.541592     1.727284     0.000000

@pcseg2.gbs

--Link1--
%chk=Me3SiOH.chk
%mem=1000mw
%nprocs=4
# rohf/gen geom=check guess=check

trimethylsilanol, ROHF/cc-pVTZ-F12

0 1

@ccpvtz-f12.gbs
