%mem=1000mw
%nprocs=12
# b3lyp/gen opt freq

1,3-pentadiyne, B3LYP/pcseg-2

0 1
C         -2.644710       0.000000       0.000000
C         -1.437085       0.000000       0.000000
C         -0.076204       0.000000       0.000000
C          1.133525       0.000000       0.000000
C          2.584934       0.000000       0.000000
H         -3.706193       0.000000       0.000000
H          2.979901       1.022066       0.000000
H          2.979901      -0.511033       0.885135
H          2.979901      -0.511033      -0.885135

@pcseg2.gbs

