%mem=1000mw
%nprocs=12
# b3lyp/gen opt=cart freq

2,4-hexadiyne, B3LYP/pcseg-2

0 1
C	0.0000000	0.0000000	0.6801110
C	0.0000000	0.0000000	-0.6801110
C	0.0000000	0.0000000	1.8905950
C	0.0000000	0.0000000	-1.8905950
C	0.0000000	0.0000000	3.3427400
C	0.0000000	0.0000000	-3.3427400
H	0.0000000	1.0215840	3.7397570
H	-0.8847180	-0.5107920	3.7397570
H	0.8847180	-0.5107920	3.7397570
H	0.0000000	1.0215840	-3.7397570
H	0.8847180	-0.5107920	-3.7397570
H	-0.8847180	-0.5107920	-3.7397570

@pcseg2.gbs

