%mem=500mw
%nprocs=4
# b3lyp/gen opt freq

methyl formate, B3LYP/pcseg-2

0 1
C	1.3668320	0.4154830	0.0000000
O	0.0000000	0.8694440	0.0000000
C	-0.9314500	-0.0942160	0.0000000
O	-0.7246760	-1.2758420	0.0000000
H	1.9729940	1.3178350	0.0000000
H	1.5693740	-0.1838380	0.8883240
H	1.5693740	-0.1838380	-0.8883240
H	-1.9266230	0.3734210	0.0000000

@pcseg2.gbs

