%mem=1000MW
%nprocs=12
# opt freq b3lyp/gen 

2-methylindole, B3LYP/pcseg-2

0 1
 C                  0.04449457   -3.42224717    0.00000000
 C                 -0.08360065   -1.93306126    0.00000000
 C                 -1.20079803   -1.13523053    0.00000000
 N                  1.04086021   -1.11867654    0.00000000
 C                 -0.76402135    0.23342765    0.00000000
 C                  0.65913352    0.20910346    0.00000000
 C                 -1.41749708    1.47764722    0.00000000
 C                  1.42769568    1.37663791    0.00000000
 C                 -0.65795474    2.64150455    0.00000000
 C                  0.75059200    2.59188064    0.00000000
 H                  0.58550356   -3.78547637    0.88496985
 H                 -0.94603608   -3.88458035    0.00000000
 H                  0.58550356   -3.78547637   -0.88496985
 H                 -2.22265975   -1.49061643    0.00000000
 H                  1.99290085   -1.45117890    0.00000000
 H                 -2.50351610    1.52716215    0.00000000
 H                  2.51438464    1.33897680    0.00000000
 H                 -1.15523232    3.60783897    0.00000000
 H                  1.31831386    3.51840117    0.00000000

@pcseg2.gbs

