%chk=mein2.chk
%mem=1000mw
%nprocs=4
# b3lyp/gen opt freq CPHF(Grid=OneStep)

2-methylindole, B3LYP/pcseg-2

0 1
C       3.263768    -0.992140     0.000000
C       1.811148    -0.663157     0.000000
C       0.716536    -1.483202     0.000000
N       1.378115     0.651110     0.000000
C      -0.452984    -0.653700     0.000000
C      -0.000000     0.689652     0.000000
C      -1.831364    -0.899694     0.000000
C      -0.877006     1.770799     0.000000
C      -2.707224     0.172546     0.000000
C      -2.235389     1.494875     0.000000
H       3.768919    -0.588821     0.881406
H       3.403343    -2.070870     0.000000
H       3.768919    -0.588821    -0.881406
H       0.746163    -2.559808     0.000000
H       1.980925     1.453389     0.000000
H      -2.206909    -1.914670     0.000000
H      -0.515456     2.790963     0.000000
H      -3.773850    -0.007150     0.000000
H      -2.943765     2.312151     0.000000

@pcseg2.gbs

--Link1--
%chk=mein2.chk
%mem=1000mw
%nprocs=4
# rohf/gen geom=check guess=check

2-methylindole, ROHF/cc-pVTZ-F12

0 1

@ccpvtz-f12.gbs
