%chk=MEK.chk
%mem=500mw
%nprocs=4
# b3lyp/gen opt freq CPHF(Grid=OneStep)

2-butanone, B3LYP/pcseg-2

0 1
C       1.883246    -0.506824     0.015032
C       0.528417     0.170491    -0.008854
C      -0.683413    -0.747407    -0.026408
C      -2.020335    -0.020904     0.021509
O       0.422053     1.375077    -0.009948
H       2.672248     0.235454    -0.070296
H       2.004954    -1.057894     0.950359
H       1.967596    -1.233727    -0.794801
H      -2.844750    -0.733538    -0.000280
H      -2.108125     0.577998     0.926967
H      -2.127979     0.655898    -0.824646
H      -0.605767    -1.369386    -0.924733
H      -0.582089    -1.447558     0.809349

@pcseg2.gbs

--Link1--
%chk=MEK.chk
%mem=500mw
%nprocs=4
# rohf/gen geom=check guess=check

2-butanone, ROHF/cc-pVTZ-F12

0 1

@ccpvtz-f12.gbs
