%mem=500mw
%nprocs=6
# b3lyp/gen opt freq

2-butanone, B3LYP/pcseg-2

0 1
C	1.8884220	-0.5043490	0.0290360
C	0.5281120	0.1705230	-0.0170330
C	-0.6849550	-0.7524640	-0.0508060
C	-2.0198070	-0.0209540	0.0416070
O	0.4169010	1.3751300	-0.0195760
H	2.6731870	0.2314210	-0.1432240
H	2.0423780	-0.9584710	1.0140730
H	1.9652780	-1.3097200	-0.7072100
H	-2.8538730	-0.7253190	-0.0079440
H	-2.0997710	0.5368340	0.9769490
H	-2.1296870	0.6988380	-0.7712540
H	-0.6248530	-1.3407430	-0.9766420
H	-0.5784970	-1.4904220	0.7550270

@pcseg2.gbs

