%mem=500mw
%nprocs=4
# b3lyp/gen opt freq

methyl acetate, B3LYP/pcseg-2

0 1
C	1.1333440	1.4929050	0.0000000
C	0.0000000	0.4936170	0.0000000
O	-1.1807580	0.7638830	0.0000000
O	0.4764420	-0.7736600	0.0000000
C	-0.5229500	-1.8050230	0.0000000
H	0.7248300	2.5039480	0.0000000
H	1.7651060	1.3460490	0.8821540
H	1.7651060	1.3460490	-0.8821540
H	0.0273350	-2.7466440	0.0000000
H	-1.1551050	-1.7300890	0.8890700
H	-1.1551050	-1.7300890	-0.8890700

@pcseg2.gbs

