%chk=meoome.chk
%mem=500mw
%nprocs=4
# b3lyp/gen opt freq CPHF(Grid=OneStep)

dimethyl peroxide, B3LYP/pcseg-2

0 1
O      -0.436731     0.587434     0.000000
O       0.436731    -0.587434     0.000000
C       0.436731     1.695031     0.000000
C      -0.436731    -1.695031     0.000000
H      -0.218977     2.564983     0.000000
H       1.063924     1.705802     0.894355
H       1.063924     1.705802    -0.894355
H       0.218977    -2.564983     0.000000
H      -1.063924    -1.705802     0.894355
H      -1.063924    -1.705802    -0.894355

@pcseg2.gbs

--Link1--
%chk=meoome.chk
%mem=500mw
%nprocs=4
# rohf/gen geom=check guess=check

dimethyl peroxide, ROHF/cc-pVTZ-F12

0 1

@ccpvtz-f12.gbs
