%mem=1000mw
%nprocs=12
# b3lyp/gen opt freq

dimethyl peroxide, B3LYP/pcseg-2

0 1
O	-0.4374200	0.5867970	0.0000000
O	0.4374200	-0.5867970	0.0000000
C	0.4374200	1.6930930	0.0000000
C	-0.4374200	-1.6930930	0.0000000
H	-0.2157970	2.5654530	0.0000000
H	1.0661120	1.7032640	0.8939780
H	1.0661120	1.7032640	-0.8939780
H	0.2157970	-2.5654530	0.0000000
H	-1.0661120	-1.7032640	0.8939780
H	-1.0661120	-1.7032640	-0.8939780

@pcseg2.gbs

