%mem=500mw
%nprocs=4
# b3lyp/gen opt freq

1-methylpyrrole, B3LYP/pcseg-2

0 1
C	2.0696010	-0.0000010	0.0248400
H	2.4585260	-0.8822490	-0.4803070
H	2.4584700	0.8826480	-0.4796430
H	2.4272070	-0.0003750	1.0567290
C	-1.4875740	0.7093530	0.0144590
H	-2.3475020	1.3573170	0.0219800
C	-1.4875710	-0.7093560	0.0144470
H	-2.3474980	-1.3573230	0.0219580
C	-0.1741970	-1.1155680	-0.0129790
H	0.2579900	-2.1014700	-0.0229240
C	-0.1742010	1.1155680	-0.0129570
H	0.2579850	2.1014700	-0.0228830
N	0.6226400	0.0000010	-0.0373960

@pcseg2.gbs

