%chk=n.chk
%mem=500mw
%nprocs=4
# b3lyp/gen opt freq CPHF(Grid=OneStep)

nitrogen atom, B3LYP/pcseg-2

0 4
N       0.000000     0.000000     0.000000

@pcseg2.gbs

--Link1--
%chk=n.chk
%mem=500mw
%nprocs=4
# rohf/gen geom=check guess=check

nitrogen atom, ROHF/cc-pVTZ-F12

0 4

@ccpvtz-f12.gbs
