%mem=500mw
# b3lyp/gen opt freq

N2, B3LYP/pcseg-2

0 1
N
N 1 r

r 1.3

@pcseg2.gbs

