%chk=n2h4.chk
%mem=500mw
%nprocs=4
# b3lyp/gen opt freq CPHF(Grid=OneStep)

hydrazine, B3LYP/pcseg-2

0 1
N      -0.000000     0.715183    -0.072814
N      -0.000000    -0.715183    -0.072814
H      -0.236423     1.104151     0.833038
H       0.236423    -1.104151     0.833038
H       0.926967     1.029132    -0.323337
H      -0.926967    -1.029132    -0.323337

@pcseg2.gbs

--Link1--
%chk=n2h4.chk
%mem=500mw
%nprocs=4
# rohf/gen geom=check guess=check

hydrazine, ROHF/cc-pVTZ-F12

0 1

@ccpvtz-f12.gbs
