%mem=1000mw
%nprocs=12
# b3lyp/gen opt freq

hydrazine, B3LYP/pcseg-2

0 1
N	0.0000000	0.7181790	-0.0791990
N	0.0000000	-0.7181790	-0.0791990
H	-0.2272290	1.0941010	0.8403900
H	0.2272290	-1.0941010	0.8403900
H	0.9493860	1.0118140	-0.2859940
H	-0.9493860	-1.0118140	-0.2859940

@pcseg2.gbs

