%mem=1000mw
%nprocs=12
# b3lyp/gen opt freq

nitrous oxide, B3LYP/pcseg-2

0 1
N	0.0000000	0.0000000	-1.2001060
N	0.0000000	0.0000000	-0.0723620
O	0.0000000	0.0000000	1.1134100

@pcseg2.gbs

