%mem=1000mw
%nprocs=12
# b3lyp/gen opt freq

dinitrogen tetroxide, B3LYP/pcseg-2

0 1
N	0.0000000	0.0000000	0.9055060
N	0.0000000	0.0000000	-0.9055060
O	0.0000000	1.0952790	1.3638300
O	0.0000000	-1.0952790	1.3638300
O	0.0000000	1.0952790	-1.3638300
O	0.0000000	-1.0952790	-1.3638300

@pcseg2.gbs

