%mem=1000mw
%nprocs=12
# b3lyp/gen opt freq

dinitrogen pentoxide, B3LYP/pcseg-2

0 1
O	0.0000000	0.0000000	0.8157520
N	0.0000000	1.2758510	0.0084240
N	0.0000000	-1.2758510	0.0084240
O	0.5076060	2.1459760	0.6328660
O	-0.5076060	-2.1459760	0.6328660
O	-0.5366290	1.2352800	-1.0481130
O	0.5366290	-1.2352800	-1.0481130

@pcseg2.gbs

