%chk=n2o5.chk
%mem=500mw
%nprocs=4
# b3lyp/gen opt freq CPHF(Grid=OneStep)

dinitrogen pentoxide, B3LYP/pcseg-2

0 1
O      -0.000000    -0.000000     0.819705
N       0.000000     1.272694     0.009158
N      -0.000000    -1.272694     0.009158
O       0.531382     2.140345     0.616560
O      -0.531382    -2.140345     0.616560
O      -0.561707     1.232957    -1.034425
O       0.561707    -1.232957    -1.034425

@pcseg2.gbs

--Link1--
%chk=n2o5.chk
%mem=500mw
%nprocs=4
# rohf/gen geom=check guess=check

dinitrogen pentoxide, ROHF/cc-pVTZ-F12

0 1

@ccpvtz-f12.gbs
