%mem=500mw
# b3lyp/gen opt freq

nitrogen atom, B3LYP/pcseg-2

0 4
N

@/home/irikura/basis/pcseg2.gbs

