%chk=naphthalene.chk
%mem=1000mw
%nprocs=4
# b3lyp/gen opt freq CPHF(Grid=OneStep)

naphthalene, B3LYP/pcseg-2

0 1
C       0.000000     1.240534     1.396987
C       0.000000     2.423633     0.705763
C       0.000000     2.423633    -0.705763
C       0.000000     1.240534    -1.396987
C      -0.000000    -1.240534    -1.396987
C      -0.000000    -2.423633    -0.705763
C      -0.000000    -2.423633     0.705763
C      -0.000000    -1.240534     1.396987
C       0.000000     0.000000     0.713929
C       0.000000     0.000000    -0.713929
H       0.000000     1.239465     2.479641
H       0.000000     3.364137     1.239978
H       0.000000     3.364137    -1.239978
H       0.000000     1.239465    -2.479641
H      -0.000000    -1.239465    -2.479641
H      -0.000000    -3.364137    -1.239978
H      -0.000000    -3.364137     1.239978
H      -0.000000    -1.239465     2.479641

@pcseg2.gbs

--Link1--
%chk=naphthalene.chk
%mem=1000mw
%nprocs=4
# rohf/gen geom=check guess=check

naphthalene, ROHF/cc-pVTZ-F12

0 1

@ccpvtz-f12.gbs
