%chk=nBu.chk
%mem=500mw
%nprocs=4
# b3lyp/gen opt freq CPHF(Grid=OneStep)

n-butyl, B3LYP/pcseg-2

0 2
C       0.508354     0.521101    -0.062454
C      -0.643195    -0.486502     0.030281
C       1.885781    -0.132987     0.017915
C      -1.994019     0.129380    -0.006701
H       0.402514     1.255039     0.741573
H       0.418389     1.078988    -0.997988
H      -0.521757    -1.065365     0.961313
H      -0.549625    -1.228538    -0.770484
H       2.682750     0.608347    -0.050997
H       2.013538    -0.670767     0.959616
H       2.030210    -0.850091    -0.792753
H      -2.864589    -0.450116    -0.278477
H      -2.152953     1.136556     0.353956

@pcseg2.gbs

--Link1--
%chk=nBu.chk
%mem=500mw
%nprocs=4
# rohf/gen geom=check guess=check

n-butyl, ROHF/cc-pVTZ-F12

0 2

@ccpvtz-f12.gbs
