%mem=1000mw
%nprocs=12
# b3lyp/gen opt freq

cyanogen, B3LYP/pcseg-2

0 1
C	0.0000000	0.0000000	0.6878680
C	0.0000000	0.0000000	-0.6878680
N	0.0000000	0.0000000	1.8459140
N	0.0000000	0.0000000	-1.8459140

@pcseg2.gbs

