%mem=500mw
%nprocs=4
# b3lyp/gen opt freq

cyanoimidogen, B3LYP/pcseg-2

0 3
C	0.0000000	0.0000000	0.0000000
N	0.0000000	0.0000000	1.2292490
N	0.0000000	0.0000000	-1.2292490

@pcseg2.gbs

