%mem=500mw
%nprocs=4
# b3lyp/gen opt freq

isocyanato radical, B3LYP/pcseg-2

0 2
N	0.0000000	0.0000000	-1.2664250
C	0.0000000	0.0000000	-0.0405610
O	0.0000000	0.0000000	1.1385430

@pcseg2.gbs

