%mem=1000mw
%nprocs=12
# b3lyp/gen opt freq

neohexane, B3LYP/pcseg-2

0 1
C	0.0302850	-2.1927900	0.0000000
C	0.8198730	-0.8798180	0.0000000
C	0.0000000	0.4363230	0.0000000
C	0.9928130	1.6135100	0.0000000
C	-0.8832760	0.5314470	1.2569710
C	-0.8832760	0.5314470	-1.2569710
H	0.4686000	2.5743750	0.0000000
H	0.7138780	-3.0465820	0.0000000
H	-0.2855300	0.4450040	2.1702060
H	-0.2855300	0.4450040	-2.1702060
H	-1.6450960	-0.2519520	1.2824190
H	-1.6450960	-0.2519520	-1.2824190
H	-1.4048690	1.4927980	1.2943620
H	-1.4048690	1.4927980	-1.2943620
H	-0.6068960	-2.2920650	0.8826720
H	-0.6068960	-2.2920650	-0.8826720
H	1.4828740	-0.8672630	0.8743080
H	1.4828740	-0.8672630	-0.8743080
H	1.6390200	1.5892180	0.8833200
H	1.6390200	1.5892180	-0.8833200

@pcseg2.gbs

