%mem=500mw
# b3lyp/gen opt freq

NH, B3LYP/pcseg-2

0 3
N
H 1 r

r 1.

@pcseg2.gbs

