%mem=500mw
# b3lyp/gen opt freq

NH2, B3LYP/pcseg-2

0 2
N
H 1 r
H 1 r 2 a

r 1.
a 105.

@pcseg2.gbs

