%chk=nh2co.chk
%mem=500mw
%nprocs=4
# b3lyp/gen opt freq CPHF(Grid=OneStep)

carbamoyl, B3LYP/pcseg-2

0 2
C      -0.000000     0.436929    -0.000000
N       0.969684    -0.484342    -0.000000
O      -1.184048     0.305634     0.000000
H       0.753113    -1.473891    -0.000000
H       1.931487    -0.202368    -0.000000

@pcseg2.gbs

--Link1--
%chk=nh2co.chk
%mem=500mw
%nprocs=4
# rohf/gen geom=check guess=check

carbamoyl, ROHF/cc-pVTZ-F12

0 2

@ccpvtz-f12.gbs
