%mem=1000mw
%nprocs=12
# b3lyp/gen opt freq

cyanamide, B3LYP/pcseg-2

0 1
C	0.0000000	0.2207970	0.0000000
N	-0.0211560	1.3768580	0.0000000
N	0.0797650	-1.1143900	0.0000000
H	-0.2051300	-1.5810260	0.8482900
H	-0.2051300	-1.5810260	-0.8482900

@pcseg2.gbs

