%mem=1000mw
%nprocs=12
# b3lyp/gen opt freq

carbamoyl, B3LYP/pcseg-2

0 2
C          0.087233       0.399622       0.000000
N         -1.149853      -0.119034       0.000000
O          1.146271      -0.155584       0.000000
H         -1.303789      -1.121233       0.000000
H         -1.950580       0.486136       0.000000

@pcseg2.gbs

