%mem=1000MW
%nprocs=12
# opt freq b3lyp/gen 

nitrosamine, B3LYP/pcseg-2

0 1
 O                 -1.12044603    0.22032546    0.00000000
 N                 -0.14713820   -0.50394576    0.00000000
 N                  1.01648095    0.14497898    0.00000000
 H                  1.02302017    1.16254798    0.00000000
 H                  1.85514882   -0.41238420    0.00000000

@pcseg2.gbs

