%mem=1000mw
%nprocs=12
# b3lyp/gen opt freq

aminoxyl, B3LYP/pcseg-2

0 2
N    -0.070000    0.000000   -0.539434
O     0.020000    0.000000    0.733800
H     0.350000    0.877096   -1.047180
H     0.350000   -0.877096   -1.047180

@pcseg2.gbs

