%mem=500mw
%nprocs=4
# b3lyp/gen opt freq

hydroxylamine, B3LYP/pcseg-2

0 1
N	0.0107990	0.7071960	0.0000000
O	0.0107990	-0.7389500	0.0000000
H	0.9513050	-0.9398050	0.0000000
H	-0.5566470	0.9505180	0.8102850
H	-0.5566470	0.9505180	-0.8102850

@pcseg2.gbs

