%chk=nh3.chk
%mem=500mw
%nprocs=4
# b3lyp/gen opt freq CPHF(Grid=OneStep)

NH3, B3LYP/pcseg-2

0 1
N       0.000000     0.000000     0.110695
H       0.000000     0.942497    -0.258289
H       0.816226    -0.471248    -0.258289
H      -0.816226    -0.471248    -0.258289

@pcseg2.gbs

--Link1--
%chk=nh3.chk
%mem=500mw
%nprocs=4
# rohf/gen geom=check guess=check

NH3, ROHF/cc-pVTZ-F12

0 1

@ccpvtz-f12.gbs
