%mem=500mw
# b3lyp/gen opt freq

NH3, B3LYP/pcseg-2

0 1
N
X 1 1.
H 1 r 2 a
H 1 r 2 a 3 120.
H 1 r 2 a 3 -120.

r 1.
a 109.5

@pcseg2.gbs

