%mem=1000mw
%nprocs=12
# b3lyp/gen opt freq

ammonia oxide, B3LYP/pcseg-2

0 1
N	0.0000000	0.0000000	-0.5388260
O	0.0000000	0.0000000	0.8271810
H	0.0000000	0.9498420	-0.9485570
H	0.8225870	-0.4749210	-0.9485570
H	-0.8225870	-0.4749210	-0.9485570

@pcseg2.gbs

