%mem=1000mw
%nprocs=12
# b3lyp/gen opt freq

ammonium radical, B3LYP/pcseg-2

0 2
N	0.0000000	0.0000000	0.0000000
H	0.6010220	0.6010220	0.6010220
H	-0.6010220	-0.6010220	0.6010220
H	-0.6010220	0.6010220	-0.6010220
H	0.6010220	-0.6010220	-0.6010220

@pcseg2.gbs

