%chk=NMP.chk
%mem=1000mw
%nprocs=4
# b3lyp/gen opt freq CPHF(Grid=OneStep)

N-methylpyrrolidone, B3LYP/pcseg-2

0 1
O       0.931939     1.825540    -0.039619
C       0.181822     0.869379    -0.003964
N       0.559368    -0.443962    -0.047388
C      -1.337572     0.906117     0.124362
C       1.939416    -0.864770    -0.014160
C      -0.539089    -1.379973     0.122004
C      -1.786947    -0.528426    -0.177636
H      -1.575211     1.210374     1.146378
H      -1.755449     1.657217    -0.541947
H       2.564517     0.017327    -0.127915
H       2.182099    -1.352532     0.934742
H       2.151336    -1.564630    -0.825152
H      -0.435175    -2.225648    -0.560498
H      -0.552635    -1.781441     1.142960
H      -2.049169    -0.624693    -1.231147
H      -2.647176    -0.846516     0.407609

@pcseg2.gbs

--Link1--
%chk=NMP.chk
%mem=1000mw
%nprocs=4
# rohf/gen geom=check guess=check

N-methylpyrrolidone, ROHF/cc-pVTZ-F12

0 1

@ccpvtz-f12.gbs
