%mem=500mw
# b3lyp/gen opt freq

NO, B3LYP/pcseg-2

0 2
N
O 1 r

r 1.3

@pcseg2.gbs

