%mem=500mw
# b3lyp/gen opt freq

NO2, B3LYP/pcseg-2

0 2
N
O 1 r
O 1 r 2 a

r 1.3
a 120.

@/home/irikura/basis/pcseg2.gbs

