%mem=1000mw
%nprocs=12
# b3lyp/gen opt freq

nitroxyl, B3LYP/pcseg-2

0 2
N          0.000000       0.000000       0.000000
O          0.000000       1.233063       0.000000
O          1.067864      -0.616532       0.000000
O         -1.067864      -0.616531       0.000000

@pcseg2.gbs

