%mem=1000mw
%nprocs=12
# b3lyp/gen opt freq

Bicyclo[2.2.1]hepta-2,5-diene, B3LYP/pcseg-2

0 1
C	0.0000000	0.0000000	1.3552480
C	0.0000000	1.1215590	0.2726520
C	0.0000000	-1.1215590	0.2726520
C	1.2415300	0.6653980	-0.5205240
C	1.2415300	-0.6653980	-0.5205240
C	-1.2415300	0.6653980	-0.5205240
C	-1.2415300	-0.6653980	-0.5205240
H	-0.8975010	0.0000000	1.9751550
H	0.8975010	0.0000000	1.9751550
H	0.0000000	2.1556490	0.6091940
H	0.0000000	-2.1556490	0.6091940
H	1.9290930	1.3329240	-1.0198600
H	1.9290930	-1.3329240	-1.0198600
H	-1.9290930	1.3329240	-1.0198600
H	-1.9290930	-1.3329240	-1.0198600

@pcseg2.gbs

