%mem=1000mw
%nprocs=12
# b3lyp/gen opt freq

n-propyl, B3LYP/pcseg-2

0 2
C    -1.336428   -0.077078   -0.005000
C     0.000000    0.573860    0.025000
C     1.171790   -0.432600   -0.020000
H     2.129313    0.091367   -0.030000
H     1.150400   -1.093873    0.846126
H     1.120400   -1.053873   -0.916126
H     0.105249    1.243846   -0.837119
H     0.095249    1.193846    0.917119
H    -1.986391   -0.088203    0.924242
H    -1.626391   -0.678203   -0.924242

@pcseg2.gbs

