%mem=500mw
# b3lyp/gen opt freq

oxygen atom, B3LYP/pcseg-2

0 3
O

@pcseg2.gbs

