%chk=o.chk
%mem=500mw
%nprocs=4
# b3lyp/gen opt freq CPHF(Grid=OneStep)

oxygen atom, B3LYP/pcseg-2

0 3
O       0.000000     0.000000     0.000000

@pcseg2.gbs

--Link1--
%chk=o.chk
%mem=500mw
%nprocs=4
# rohf/gen geom=check guess=check

oxygen atom, ROHF/cc-pVTZ-F12

0 3

@ccpvtz-f12.gbs
