%mem=500mw
# b3lyp/gen opt freq

O2, B3LYP/pcseg-2

0 3
O
O 1 r

r 1.3

@pcseg2.gbs

