%chk=o3.chk
%mem=500mw
%nprocs=4
# b3lyp/gen opt freq CPHF(Grid=OneStep)

ozone, B3LYP/pcseg-2

0 1
O      -0.000000     0.000000     0.428968
O      -0.000000     1.076610    -0.214484
O      -0.000000    -1.076610    -0.214484

@pcseg2.gbs

--Link1--
%chk=o3.chk
%mem=500mw
%nprocs=4
# rohf/gen geom=check guess=check

ozone, ROHF/cc-pVTZ-F12

0 1

@ccpvtz-f12.gbs
