%mem=1000mw
%nprocs=12
# b3lyp/gen opt freq

chlorine dioxide, B3LYP/pcseg-2

0 2
Cl	0.0000000	0.0000000	0.3734860
O	0.0000000	1.2765340	-0.3968290
O	0.0000000	-1.2765340	-0.3968290

@pcseg2.gbs

