%chk=oclo.chk
%mem=500mw
%nprocs=4
# b3lyp/gen opt freq CPHF(Grid=OneStep)

chlorine dioxide, B3LYP/pcseg-2

0 2
Cl      0.000000     0.000000     0.379274
O      -0.000000     1.268114    -0.402979
O      -0.000000    -1.268114    -0.402979

@pcseg2.gbs

--Link1--
%chk=oclo.chk
%mem=500mw
%nprocs=4
# rohf/gen geom=check guess=check

chlorine dioxide, ROHF/cc-pVTZ-F12

0 2

@ccpvtz-f12.gbs
