%mem=500mw
# b3lyp/gen opt freq

OH, B3LYP/pcseg-2

0 2
H
O 1 r

r 1.0

@pcseg2.gbs

