%mem=1000mw
%nprocs=12
# b3lyp/gen opt freq

NO dimer, B3LYP/pcseg-2

0 1
O          1.190694      -0.529879       0.000000
O         -1.190694      -0.529879       0.000000
N          0.989635       0.605250       0.000000
N         -0.989635       0.605250       0.000000

@pcseg2.gbs

