%mem=1000mw
%nprocs=12
# b3lyp/gen opt freq

nitrosyl nitrite, B3LYP/pcseg-2

0 1
O	0.0000000	0.0000000	0.4625550
N	0.0000000	1.1863750	-0.4522520
N	0.0000000	-1.1863750	-0.4522520
O	0.0000000	2.1614080	0.1644430
O	0.0000000	-2.1614080	0.1644430

@pcseg2.gbs

