%chk=onono.chk
%mem=500mw
%nprocs=4
# b3lyp/gen opt freq CPHF(Grid=OneStep)

nitrosyl nitrite, B3LYP/pcseg-2

0 1
O       0.000000     0.000000     0.457660
N      -0.000000     1.178252    -0.450929
N      -0.000000    -1.178252    -0.450929
O      -0.000000     2.152892     0.165732
O      -0.000000    -2.152892     0.165732

@pcseg2.gbs

--Link1--
%chk=onono.chk
%mem=500mw
%nprocs=4
# rohf/gen geom=check guess=check

nitrosyl nitrite, ROHF/cc-pVTZ-F12

0 1

@ccpvtz-f12.gbs
