%mem=500mw
# b3lyp/gen opt freq

Ethylene oxide, B3LYP/pcseg-2

0 1
O
C 1 co
C 1 co 2 60.
H 2 ch 1 a 3 120.
H 2 ch 1 a 3 -120.
H 3 ch 1 a 2 120.
H 3 ch 1 a 2 -120.

co 1.3
ch 1.
a 109.

@pcseg2.gbs

