%mem=1000mw
%nprocs=12
# ccsd/cc-pVTZ opt freq

acetylene oxide, B3LYP/pcseg-2 breaks symmetry

0 1
O	0.0000000	0.0000000	0.8975330
C	0.0000000	0.6302780	-0.4650710
C	0.0000000	-0.6302780	-0.4650710
H	0.0000000	1.6467990	-0.7997080
H	0.0000000	-1.6467990	-0.7997080

