%chk=p.chk
%mem=500mw
%nprocs=4
# b3lyp/gen opt freq CPHF(Grid=OneStep)

phosphorus atom, B3LYP/pcseg-2

0 4
P       0.000000     0.000000     0.000000

@pcseg2.gbs

--Link1--
%chk=p.chk
%mem=500mw
%nprocs=4
# rohf/gen geom=check guess=check

phosphorus atom, ROHF/cc-pVTZ-F12

0 4

@ccpvtz-f12.gbs
