%chk=pC6H4Cl.chk
%mem=500mw
%nprocs=4
# b3lyp/gen opt freq CPHF(Grid=OneStep)

4-chlorophenyl, B3LYP/pcseg-2

0 2
C       0.000000     0.000000    -2.262029
C       0.000000     1.218914    -1.636594
C      -0.000000    -1.218914    -1.636594
H       0.000000     2.152843    -2.181891
H      -0.000000    -2.152843    -2.181891
C       0.000000     1.214814    -0.238879
C      -0.000000    -1.214814    -0.238879
H       0.000000     2.142454     0.315173
H      -0.000000    -2.142454     0.315173
C       0.000000    -0.000000     0.436105
Cl      0.000000    -0.000000     2.187920

@pcseg2.gbs

--Link1--
%chk=pC6H4Cl.chk
%mem=500mw
%nprocs=4
# rohf/gen geom=check guess=check

4-chlorophenyl, ROHF/cc-pVTZ-F12

0 2

@ccpvtz-f12.gbs
