%mem=1000mw
%nprocs=12
# b3lyp/gen opt freq

n-pentane, B3LYP/pcseg-2

0 1
C	0.0000000	0.0000000	0.3157020
C	0.0000000	1.2822700	-0.5235620
C	0.0000000	-1.2822700	-0.5235620
C	0.0000000	2.5576320	0.3242420
C	0.0000000	-2.5576320	0.3242420
H	0.8771780	0.0000000	0.9782690
H	-0.8771780	0.0000000	0.9782690
H	0.8769040	1.2815200	-1.1846340
H	-0.8769040	1.2815200	-1.1846340
H	-0.8769040	-1.2815200	-1.1846340
H	0.8769040	-1.2815200	-1.1846340
H	0.0000000	3.4555270	-0.3019240
H	0.0000000	-3.4555270	-0.3019240
H	-0.8835690	2.6023900	0.9708710
H	0.8835690	2.6023900	0.9708710
H	0.8835690	-2.6023900	0.9708710
H	-0.8835690	-2.6023900	0.9708710

@pcseg2.gbs

