%chk=phcch.chk
%mem=500mw
%nprocs=4
# b3lyp/gen opt freq CPHF(Grid=OneStep)

phenylacetylene, B3LYP/pcseg-2

0 1
C       0.000000    -0.000000     0.591886
C       0.000000    -0.000000     2.017866
C       0.000000     1.207487    -0.119535
C      -0.000000    -1.207487    -0.119535
C       0.000000     1.203129    -1.506303
C      -0.000000    -1.203129    -1.506303
C       0.000000     0.000000    -2.203957
C       0.000000    -0.000000     3.219650
H       0.000000    -0.000000     4.280705
H       0.000000     2.140887     0.425179
H      -0.000000    -2.140887     0.425179
H       0.000000     2.141409    -2.044136
H      -0.000000    -2.141409    -2.044136
H       0.000000     0.000000    -3.285398

@pcseg2.gbs

--Link1--
%chk=phcch.chk
%mem=500mw
%nprocs=4
# rohf/gen geom=check guess=check

phenylacetylene, ROHF/cc-pVTZ-F12

0 1

@ccpvtz-f12.gbs
