%mem=1000mw
%nprocs=12
# b3lyp/gen opt freq

phenylacetylene, B3LYP/pcseg-2

0 1
C	0.0000000	0.0000000	0.5937800
C	0.0000000	0.0000000	2.0219190
C	0.0000000	1.2104150	-0.1194870
C	0.0000000	-1.2104150	-0.1194870
C	0.0000000	1.2062560	-1.5096570
C	0.0000000	-1.2062560	-1.5096570
C	0.0000000	0.0000000	-2.2087830
C	0.0000000	0.0000000	3.2263050
H	0.0000000	0.0000000	4.2900590
H	0.0000000	2.1471170	0.4265190
H	0.0000000	-2.1471170	0.4265190
H	0.0000000	2.1476420	-2.0493880
H	0.0000000	-2.1476420	-2.0493880
H	0.0000000	0.0000000	-3.2939210

@pcseg2.gbs

