%mem=1000mw
%nprocs=12
# b3lyp/gen opt freq

benzaldehyde, B3LYP/pcseg-2

0 1
C	0.0000000	0.5735430	0.0000000
C	-1.0380070	-0.3664910	0.0000000
C	-0.7432800	-1.7223090	0.0000000
C	0.5875560	-2.1473090	0.0000000
C	1.6246240	-1.2164950	0.0000000
C	1.3295460	0.1430010	0.0000000
C	-0.3035530	2.0211890	0.0000000
O	-1.4165230	2.4939660	0.0000000
H	0.5966680	2.6769720	0.0000000
H	-2.0607430	-0.0061650	0.0000000
H	-1.5449620	-2.4533300	0.0000000
H	0.8148550	-3.2085410	0.0000000
H	2.6565150	-1.5509120	0.0000000
H	2.1285420	0.8794630	0.0000000

@pcseg2.gbs

