%mem=1000mw
%nprocs=12
# b3lyp/gen opt freq

chlorobenzene, B3LYP/pcseg-2

0 1
Cl	0.0000000	0.0000000	2.2562570
C	0.0000000	0.0000000	0.5036670
C	0.0000000	1.2135820	-0.1767390
C	0.0000000	-1.2135820	-0.1767390
C	0.0000000	1.2050300	-1.5695590
C	0.0000000	-1.2050300	-1.5695590
C	0.0000000	0.0000000	-2.2684030
H	0.0000000	2.1446480	0.3768050
H	0.0000000	-2.1446480	0.3768050
H	0.0000000	2.1476170	-2.1065760
H	0.0000000	-2.1476170	-2.1065760
H	0.0000000	0.0000000	-3.3528300

@pcseg2.gbs

