%mem=1000mw
%nprocs=12
# b3lyp/gen opt freq

benzonitrile, B3LYP/pcseg-2

0 1
N	0.0000000	0.0000000	3.1972610
C	0.0000000	0.0000000	2.0421200
C	0.0000000	0.0000000	0.6103970
C	0.0000000	1.2145680	-0.0903080
C	0.0000000	-1.2145680	-0.0903080
C	0.0000000	1.2083630	-1.4805010
C	0.0000000	-1.2083630	-1.4805010
C	0.0000000	0.0000000	-2.1761310
H	0.0000000	2.1497230	0.4578190
H	0.0000000	-2.1497230	0.4578190
H	0.0000000	2.1483610	-2.0219230
H	0.0000000	-2.1483610	-2.0219230
H	0.0000000	0.0000000	-3.2612200

@pcseg2.gbs

