%mem=500mw
%nprocs=6
# b3lyp/gen opt freq 

acetophenone, B3LYP/pcseg-2

0 1
C	1.6592560	2.2128230	0.0000000
C	0.2316140	1.6945790	0.0000000
C	0.0000000	0.2113070	0.0000000
O	-0.7053080	2.4680240	0.0000000
C	1.0447410	-0.7213800	0.0000000
C	-1.3233260	-0.2503160	0.0000000
C	0.7712020	-2.0869580	0.0000000
C	-1.5963110	-1.6117350	0.0000000
C	-0.5482590	-2.5337120	0.0000000
H	1.6353650	3.3012280	0.0000000
H	2.2074580	1.8659150	0.8810150
H	2.2074580	1.8659150	-0.8810150
H	2.0771700	-0.3899850	0.0000000
H	-2.1210640	0.4832490	0.0000000
H	1.5877410	-2.8017390	0.0000000
H	-2.6247370	-1.9582310	0.0000000
H	-0.7604230	-3.5982010	0.0000000

@pcseg2.gbs

