%mem=1000mw
%nprocs=12
# b3lyp/gen opt freq

benzoyl, B3LYP/pcseg-2

0 2
C          1.951312       0.505140       0.000000
C          0.500324       0.228143       0.000000
C          0.030769      -1.090627       0.000000
C         -1.334936      -1.330165       0.000000
C         -2.230365      -0.260760       0.000000
C         -1.763368       1.050131       0.000000
C         -0.395777       1.296183       0.000000
H          0.741807      -1.904116       0.000000
H         -1.706018      -2.344977       0.000000
H         -3.293967      -0.452298       0.000000
H         -2.462107       1.873832       0.000000
H         -0.010476       2.305631       0.000000
O          2.856403      -0.265742       0.000000

@pcseg2.gbs

