%mem=1000mw
%nprocs=12
# b3lyp/gen opt freq

a,c-dibenzobenzene, B3LYP/pcseg-2

0 1
C	0.0000000	0.6765290	2.0857850
C	0.0000000	-0.6765290	2.0857850
C	0.0000000	2.8309630	0.8800880
C	0.0000000	1.4189630	0.8579940
C	0.0000000	-1.4189630	0.8579940
C	0.0000000	-2.8309630	0.8800880
C	0.0000000	3.5569130	-0.2881190
C	0.0000000	0.7305210	-0.3839100
C	0.0000000	-0.7305210	-0.3839100
C	0.0000000	-3.5569130	-0.2881190
C	0.0000000	2.8855250	-1.5220680
C	0.0000000	1.5084040	-1.5664700
C	0.0000000	-1.5084040	-1.5664700
C	0.0000000	-2.8855250	-1.5220680
H	0.0000000	1.2348470	3.0168130
H	0.0000000	-1.2348470	3.0168130
H	0.0000000	3.3366100	1.8405920
H	0.0000000	-3.3366100	1.8405920
H	0.0000000	4.6415020	-0.2632690
H	0.0000000	-4.6415020	-0.2632690
H	0.0000000	3.4589160	-2.4430000
H	0.0000000	1.0196930	-2.5309270
H	0.0000000	-1.0196930	-2.5309270
H	0.0000000	-3.4589160	-2.4430000

@pcseg2.gbs

