%mem=1000mw
%nprocs=12
# b3lyp/gen opt freq

ethylbenzene, B3LYP/pcseg-2

0 1
C	-0.2330720	0.4903780	0.0000000
C	-0.2346640	-0.2283460	1.2003000
C	-0.2346640	-1.6214510	1.2034250
C	-0.2338760	-2.3236360	0.0000000
C	-0.2346640	-1.6214510	-1.2034250
C	-0.2346640	-0.2283460	-1.2003000
C	-0.1928810	2.0035690	0.0000000
C	1.2385820	2.5654180	0.0000000
H	-0.2409510	0.3101920	2.1443790
H	-0.2399320	-2.1590340	2.1467560
H	-0.2372650	-3.4089840	0.0000000
H	-0.2399320	-2.1590340	-2.1467560
H	-0.2409510	0.3101920	-2.1443790
H	-0.7293480	2.3833550	-0.8759200
H	-0.7293480	2.3833550	0.8759200
H	1.7926370	2.2319060	0.8816040
H	1.7926370	2.2319060	-0.8816040
H	1.2318820	3.6593440	0.0000000

@pcseg2.gbs

