%chk=phf.chk
%mem=500mw
%nprocs=4
# b3lyp/gen opt freq CPHF(Grid=OneStep)

fluorobenzene, B3LYP/pcseg-2

0 1
F       0.000000     0.000000     2.277442
C       0.000000     0.000000     0.925178
C       0.000000     1.212656     0.259016
C      -0.000000    -1.212656     0.259016
C       0.000000     1.203600    -1.131714
C      -0.000000    -1.203600    -1.131714
C       0.000000    -0.000000    -1.828895
H       0.000000     2.134369     0.822971
H      -0.000000    -2.134369     0.822971
H       0.000000     2.142011    -1.669173
H      -0.000000    -2.142011    -1.669173
H       0.000000    -0.000000    -2.909892

@pcseg2.gbs

--Link1--
%chk=phf.chk
%mem=500mw
%nprocs=4
# rohf/gen geom=check guess=check

fluorobenzene, ROHF/cc-pVTZ-F12

0 1

@ccpvtz-f12.gbs
