%mem=1000mw
%nprocs=12
# b3lyp/gen opt freq symm=loose

phenyl isocyanide, B3LYP/pcseg-2

0 1
C          0.57599       0.0000       0.000000
C         -0.11594       1.2141       0.000000
C         -0.11594      -1.2141       0.000000
C         -1.50591       1.2065       0.000000
C         -1.50591      -1.2065       0.000000
C         -2.20351       0.0000       0.000000
H          0.44233       2.1424       0.000000
H          0.44233      -2.1424       0.000000
H         -2.04452       2.1477       0.000000
H         -2.04452      -2.1477       0.000000
H         -3.28789      -0.0000       0.000000
N          1.95724       0.0000       0.000000
C          3.13255       0.0000       0.000000

@pcseg2.gbs

