%chk=phnh2.chk
%mem=500mw
%nprocs=4
# b3lyp/gen opt freq CPHF(Grid=OneStep)

aniline, B3LYP/pcseg-2

0 1
C      -0.002339    -0.934959    -0.000000
C      -0.003332    -0.219789     1.203075
C      -0.003332     1.167880     1.197722
C      -0.003636     1.875068     0.000000
C      -0.003332     1.167880    -1.197722
C      -0.003332    -0.219789    -1.203075
N      -0.058517    -2.328449    -0.000000
H      -0.007931    -0.757883     2.143090
H      -0.002680     1.699881     2.140056
H      -0.003165     2.955888     0.000000
H      -0.002680     1.699881    -2.140056
H      -0.007931    -0.757883    -2.143090
H       0.274912    -2.779238    -0.835768
H       0.274912    -2.779238     0.835768

@pcseg2.gbs

--Link1--
%chk=phnh2.chk
%mem=500mw
%nprocs=4
# rohf/gen geom=check guess=check

aniline, ROHF/cc-pVTZ-F12

0 1

@ccpvtz-f12.gbs
