%mem=1000mw
%nprocs=12
# b3lyp/gen opt freq symm=loose

aniline, B3LYP/pcseg-2

0 1
C	0.0022200	0.9393810	0.0000000
C	0.0030430	0.2218060	1.2093680
C	0.0030430	-1.1730930	1.2039020
C	0.0029050	-1.8842470	0.0000000
C	0.0030430	-1.1730930	-1.2039020
C	0.0030430	0.2218060	-1.2093680
N	0.0596320	2.3371660	0.0000000
H	0.0089070	0.7622460	2.1530850
H	0.0024400	-1.7066490	2.1505070
H	0.0020590	-2.9696150	0.0000000
H	0.0024400	-1.7066490	-2.1505070
H	0.0089070	0.7622460	-2.1530850
H	-0.2729720	2.7914490	-0.8394150
H	-0.2729720	2.7914490	0.8394150

@pcseg2.gbs

