%chk=phno2.chk
%mem=500mw
%nprocs=4
# b3lyp/gen opt freq CPHF(Grid=OneStep)

nitrobenzene, B3LYP/pcseg-2

0 1
C       0.000000     0.000000     0.240476
C      -0.000000     1.214938    -0.429687
C      -0.000000     1.206771    -1.817200
C      -0.000000    -0.000000    -2.509455
C      -0.000000    -1.206771    -1.817200
C      -0.000000    -1.214938    -0.429687
N       0.000000     0.000000     1.718515
O       0.000000    -1.081959     2.286515
O       0.000000     1.081959     2.286515
H      -0.000000     2.134420     0.133967
H      -0.000000     2.143025    -2.357231
H      -0.000000    -0.000000    -3.590796
H      -0.000000    -2.143025    -2.357231
H      -0.000000    -2.134420     0.133967

@pcseg2.gbs

--Link1--
%chk=phno2.chk
%mem=500mw
%nprocs=4
# rohf/gen geom=check guess=check

nitrobenzene, ROHF/cc-pVTZ-F12

0 1

@ccpvtz-f12.gbs
