%mem=1000mw
%nprocs=12
# b3lyp/gen opt freq

nitrosobenzene, B3LYP/pcseg-2

0 1
C	0.0000000	0.5967010	0.0000000
C	-1.0525690	-0.3250400	0.0000000
C	-0.7618170	-1.6803330	0.0000000
C	0.5703680	-2.1111350	0.0000000
C	1.6154300	-1.1886840	0.0000000
C	1.3289300	0.1729530	0.0000000
N	-0.1909070	2.0271670	0.0000000
O	-1.3468760	2.3952770	0.0000000
H	-2.0691320	0.0482000	0.0000000
H	-1.5643790	-2.4089580	0.0000000
H	0.7899960	-3.1729210	0.0000000
H	2.6435920	-1.5306090	0.0000000
H	2.1092220	0.9251330	0.0000000

@pcseg2.gbs

