%chk=PhO.chk
%mem=500mw
%nprocs=4
# b3lyp/gen opt freq CPHF(Grid=OneStep)

phenoxyl, B3LYP/pcseg-2

0 2
C       0.000000    -0.000000     1.045011
C       0.000000     1.236095     0.288399
C      -0.000000    -1.236095     0.288399
C       0.000000     1.220702    -1.082937
C      -0.000000    -1.220702    -1.082937
C       0.000000     0.000000    -1.777959
O       0.000000    -0.000000     2.295544
H       0.000000     2.158551     0.852409
H      -0.000000    -2.158551     0.852409
H       0.000000     2.148898    -1.638803
H      -0.000000    -2.148898    -1.638803
H       0.000000     0.000000    -2.859424

@pcseg2.gbs

--Link1--
%chk=PhO.chk
%mem=500mw
%nprocs=4
# rohf/gen geom=check guess=check

phenoxyl, ROHF/cc-pVTZ-F12

0 2

@ccpvtz-f12.gbs
