%mem=1000mw
%nprocs=12
# b3lyp/gen opt freq

phenol, B3LYP/pcseg-2

0 1
C	0.0000000	0.9405190	0.0000000
C	-1.2024380	0.2316430	0.0000000
C	-1.1857850	-1.1609510	0.0000000
C	0.0215080	-1.8535730	0.0000000
C	1.2182230	-1.1371370	0.0000000
C	1.2151570	0.2525960	0.0000000
O	0.0485100	2.3033480	0.0000000
H	-0.8501400	2.6490650	0.0000000
H	-2.1473660	0.7693140	0.0000000
H	-2.1259190	-1.7029180	0.0000000
H	0.0314790	-2.9375680	0.0000000
H	2.1663160	-1.6652050	0.0000000
H	2.1375660	0.8219420	0.0000000

@pcseg2.gbs

