%chk=phooh.chk
%mem=500mw
%nprocs=4
# b3lyp/gen opt freq CPHF(Grid=OneStep)

phenyl hydroperoxide, B3LYP/pcseg-2

0 1
C       0.459989    -0.264228    -0.011652
C       0.057591     1.063831    -0.013165
C      -1.305634     1.349700     0.002067
C      -2.250466     0.333260     0.015523
C      -1.824853    -0.992863     0.011879
C      -0.473284    -1.300285    -0.003607
O       1.771719    -0.688340    -0.027747
O       2.683697     0.429070    -0.065854
H       0.790925     1.852793    -0.030482
H      -1.623344     2.383821     0.000359
H      -3.305668     0.567461     0.026305
H      -2.549157    -1.796226     0.019977
H      -0.130006    -2.325321    -0.009652
H       3.193853     0.255145     0.736032

@pcseg2.gbs

--Link1--
%chk=phooh.chk
%mem=500mw
%nprocs=4
# rohf/gen geom=check guess=check

phenyl hydroperoxide, ROHF/cc-pVTZ-F12

0 1

@ccpvtz-f12.gbs
