%mem=1000mw
%nprocs=12
# b3lyp/gen opt freq

phenylperoxyl, B3LYP/pcseg-2

0 2
C          0.452081      -0.225088       0.000000
C          0.024958       1.097153       0.000000
C         -1.344216       1.342681       0.000000
C         -2.257436       0.287792       0.000000
C         -1.800903      -1.029614       0.000000
C         -0.436069      -1.295910       0.000000
O          1.800880      -0.587731       0.000000
O          2.651365       0.417638       0.000000
H          0.757213       1.892239       0.000000
H         -1.699839       2.367440       0.000000
H         -3.322194       0.492909       0.000000
H         -2.507074      -1.852612       0.000000
H         -0.048992      -2.308135       0.000000

@pcseg2.gbs

