%chk=PhPh.chk
%mem=1000mw
%nprocs=4
# b3lyp/gen opt freq CPHF(Grid=OneStep)

biphenyl, B3LYP/pcseg-2

0 1
C       0.000000     0.000000     0.741413
C       0.000000     0.000000    -0.741413
C      -0.405346     1.129489     1.461527
C       0.405346    -1.129489     1.461527
C      -0.405346    -1.129489    -1.461527
C       0.405346     1.129489    -1.461527
C      -0.405938     1.129792     2.850263
C       0.405938    -1.129792     2.850263
C      -0.405938    -1.129792    -2.850263
C       0.405938     1.129792    -2.850263
C       0.000000     0.000000     3.551501
C       0.000000     0.000000    -3.551501
H      -0.745561     2.006780     0.928069
H       0.745561    -2.006780     0.928069
H      -0.745561    -2.006780    -0.928069
H       0.745561     2.006780    -0.928069
H      -0.732175     2.011707     3.385413
H       0.732175    -2.011707     3.385413
H      -0.732175    -2.011707    -3.385413
H       0.732175     2.011707    -3.385413
H       0.000000     0.000000     4.633091
H       0.000000     0.000000    -4.633091

@pcseg2.gbs

--Link1--
%chk=PhPh.chk
%mem=1000mw
%nprocs=4
# rohf/gen geom=check guess=check

biphenyl, ROHF/cc-pVTZ-F12

0 1

@ccpvtz-f12.gbs
