%mem=1000mw
%nprocs=12
# b3lyp/gen opt freq

tetracyclic C6H6, B3LYP/pcseg-2

0 1
C	0.0000000	0.8776210	0.7789480
C	-0.7600420	-0.4388110	0.7789480
C	0.7600420	-0.4388110	0.7789480
C	0.0000000	0.8776210	-0.7789480
C	0.7600420	-0.4388110	-0.7789480
C	-0.7600420	-0.4388110	-0.7789480
H	0.0000000	1.6715770	1.5118650
H	-1.4476280	-0.8357880	1.5118650
H	1.4476280	-0.8357880	1.5118650
H	0.0000000	1.6715770	-1.5118650
H	1.4476280	-0.8357880	-1.5118650
H	-1.4476280	-0.8357880	-1.5118650

@pcseg2.gbs

