%mem=1000mw
%nprocs=12
# b3lyp/gen opt freq

1-propanol, B3LYP/pcseg-2

0 1
C	-1.5411080	-0.5155870	0.1287850
C	-0.6337410	0.6448950	-0.2880560
C	0.7720550	0.5427700	0.2918600
O	1.3796450	-0.6361350	-0.2203670
H	-2.5303660	-0.4307790	-0.3310870
H	-1.6791840	-0.5368570	1.2160280
H	-1.1033440	-1.4707900	-0.1712840
H	-0.5515900	0.6813660	-1.3810750
H	-1.0669270	1.6014280	0.0290320
H	0.7169330	0.5119390	1.3929770
H	1.3537710	1.4372970	0.0172830
H	2.2403110	-0.7369940	0.1955260

@pcseg2.gbs

