%mem=500mw
%nprocs=4
# b3lyp/gen opt freq 

propene, B3LYP/pcseg-2

0 1
C	-1.1342250	-0.5045960	0.0000000
C	0.0000000	0.4725310	0.0000000
C	1.2877780	0.1512770	0.0000000
H	1.6151810	-0.8819050	0.0000000
H	2.0612990	0.9075060	0.0000000
H	-0.2762970	1.5233730	0.0000000
H	-0.7759540	-1.5341200	0.0000000
H	-1.7727720	-0.3650630	0.8762050
H	-1.7727720	-0.3650630	-0.8762050

@pcseg2.gbs

