%mem=1000mw
%nprocs=12
# b3lyp/gen opt freq

pyridine-N-oxide, B3LYP/pcseg-2

0 1
C           1.93640        -0.61390        -0.19930
N           2.01920        -1.98580        -0.20820
C           3.07130         0.17590        -0.16670
C           4.34080        -0.40490        -0.14180
C           4.41580        -1.79910        -0.15100
C           3.26510        -2.56570        -0.18380
O           0.96620        -2.70290        -0.23850
H           0.92060        -0.24280        -0.22000
H           2.94640         1.25440        -0.16110
H           5.23680         0.20520        -0.11610
H           5.37320        -2.31070        -0.13270
H           3.23810        -3.64700        -0.19300

@pcseg2.gbs

