%chk=pyridine.chk
%mem=500mw
%nprocs=4
# b3lyp/gen opt freq CPHF(Grid=OneStep)

pyridine, B3LYP/pcseg-2

0 1
N       0.000000     0.000000     1.411885
C      -0.000000    -0.000000    -1.378973
C       0.000000     1.139754     0.719726
C      -0.000000    -1.139754     0.719726
C      -0.000000     1.193665    -0.669713
C      -0.000000    -1.193665    -0.669713
H      -0.000000    -0.000000    -2.460816
H       0.000000     2.053411     1.303282
H      -0.000000    -2.053411     1.303282
H      -0.000000     2.148166    -1.177632
H      -0.000000    -2.148166    -1.177632

@pcseg2.gbs

--Link1--
%chk=pyridine.chk
%mem=500mw
%nprocs=4
# rohf/gen geom=check guess=check

pyridine, ROHF/cc-pVTZ-F12

0 1

@ccpvtz-f12.gbs
