%mem=1000mw
%nprocs=12
# b3lyp/gen opt freq symm=loose

pyridine, B3LYP/pcseg-2

0 1
N	0.0000000	0.0000000	1.4171230
C	0.0000000	0.0000000	-1.3828670
C	0.0000000	1.1403450	0.7209490
C	0.0000000	-1.1403450	0.7209490
C	0.0000000	1.1963380	-0.6716800
C	0.0000000	-1.1963380	-0.6716800
H	0.0000000	0.0000000	-2.4683940
H	0.0000000	2.0557870	1.3082860
H	0.0000000	-2.0557870	1.3082860
H	0.0000000	2.1542670	-1.1810340
H	0.0000000	-2.1542670	-1.1810340

@pcseg2.gbs

