%chk=pyridine-N-oxide.chk
%mem=500mw
%nprocs=4
# b3lyp/gen opt freq CPHF(Grid=OneStep)

pyridine-N-oxide, B3LYP/pcseg-2

0 1
C       0.000000     1.175536     0.282169
N       0.000000     0.000000     0.981995
C       0.000000     1.189571    -1.095183
C       0.000000    -0.000000    -1.814308
C      -0.000000    -1.189571    -1.095183
C      -0.000000    -1.175536     0.282169
O       0.000000     0.000000     2.255446
H       0.000000     2.053442     0.906792
H       0.000000     2.146369    -1.597672
H       0.000000    -0.000000    -2.893763
H      -0.000000    -2.146369    -1.597672
H      -0.000000    -2.053442     0.906792

@pcseg2.gbs

--Link1--
%chk=pyridine-N-oxide.chk
%mem=500mw
%nprocs=4
# rohf/gen geom=check guess=check

pyridine-N-oxide, ROHF/cc-pVTZ-F12

0 1

@ccpvtz-f12.gbs
