%chk=pyrrole.chk
%mem=500mw
%nprocs=4
# b3lyp/gen opt freq CPHF(Grid=OneStep)

pyrrole, B3LYP/pcseg-2

0 1
N       0.000000     0.000000     1.119033
H       0.000000     0.000000     2.122068
C       0.000000     1.121799     0.330423
C      -0.000000    -1.121799     0.330423
C      -0.000000     0.710612    -0.980058
C      -0.000000    -0.710612    -0.980058
H       0.000000     2.106858     0.761827
H      -0.000000    -2.106858     0.761827
H      -0.000000     1.355725    -1.841665
H      -0.000000    -1.355725    -1.841665

@pcseg2.gbs

--Link1--
%chk=pyrrole.chk
%mem=500mw
%nprocs=4
# rohf/gen geom=check guess=check

pyrrole, ROHF/cc-pVTZ-F12

0 1

@ccpvtz-f12.gbs
