# b3lyp/gen opt freq

sulfur atom, B3LYP/pcseg-2

0 3
S

@/home/irikura/basis/pcseg2.gbs

