%mem=500mw
# b3lyp/gen opt freq

S2, B3LYP/pcseg-2

0 3
S
S 1 r

r 1.9

@pcseg2.gbs

