%mem=500mw
# b3lyp/gen opt freq

disulfur monoxide, B3LYP/pcseg-2

0 1
O	1.4755650	0.8120460	0.0000000
S	0.0000000	0.6846440	0.0000000
S	-0.7377820	-1.0906670	0.0000000

@/home/irikura/basis/pcseg2.gbs

