%mem=500mw
%nprocs=4
# b3lyp/gen opt freq

sulfur dichloride, B3LYP/pcseg-2

0 1
S	0.0000000	0.0000000	0.8687510
Cl	0.0000000	1.6389850	-0.4088240
Cl	0.0000000	-1.6389850	-0.4088240

@pcseg2.gbs

