%mem=500mw
# b3lyp/gen opt freq

sulfhydryl, B3LYP/pcseg-2

0 2
H
S 1 r

r 1.35

@pcseg2.gbs

