%mem=500mw
# b3lyp/gen opt freq

silicon atom, B3LYP/pcseg-2

0 3
Si

@pcseg2.gbs

