%mem=1000mw
%nprocs=12
# b3lyp/gen opt=calcall 

disilene, B3LYP/pcseg-2

0 1
Si	0.0000000	1.0874200	0.0000000
Si	0.0000000	-1.0874200	0.0000000
H	0.4432950	1.7939700	1.2264600
H	0.4432950	1.7939700	-1.2264600
H	-0.4432950	-1.7939700	1.2264600
H	-0.4432950	-1.7939700	-1.2264600

@pcseg2.gbs

