%mem=1000mw
%nprocs=12
# b3lyp/gen opt freq

tetrafluorosilane, B3LYP/pcseg-2

0 1
Si	0.0000000	0.0000000	0.0000000
F	0.9168190	0.9168190	0.9168190
F	-0.9168190	-0.9168190	0.9168190
F	-0.9168190	0.9168190	-0.9168190
F	0.9168190	-0.9168190	-0.9168190

@pcseg2.gbs

