%chk=sih.chk
%mem=500mw
%nprocs=4
# b3lyp/gen opt freq CPHF(Grid=OneStep)

silicon monohydride, B3LYP/pcseg-2

0 2
Si      0.000000     0.000000     0.102038
H       0.000000     0.000000    -1.428532

@pcseg2.gbs

--Link1--
%chk=sih.chk
%mem=500mw
%nprocs=4
# rohf/gen geom=check guess=check

silicon monohydride, ROHF/cc-pVTZ-F12

0 2

@ccpvtz-f12.gbs
