%mem=1000mw
%nprocs=12
# b3lyp/gen opt freq

silylene, B3LYP/pcseg-2

0 3
Si         0.000000       0.071641       0.000000
H          1.091375      -0.994373       0.000000
H         -1.091375      -0.994373       0.000000

@pcseg2.gbs

