%mem=500mw
%nprocs=4
# b3lyp/gen opt freq

hydroxysilyl, B3LYP/pcseg-2

0 2
Si        -0.585565       0.011723       0.060928
O          1.065763      -0.058880      -0.041137
H         -1.141588       1.151752      -0.736013
H         -1.066405      -1.277892      -0.502607
H          1.548681       0.735175       0.200168

@pcseg2.gbs

