%mem=1000mw
%nprocs=12
# b3lyp/gen opt freq

dimethylsilane, B3LYP/pcseg-2

0 1
Si         0.000000       0.519814       0.000000
C          1.559775      -0.533854       0.000000
C         -1.559775      -0.533854       0.000000
H          0.000000       1.403730       1.199062
H          0.000000       1.403730      -1.199062
H          2.457234       0.092531       0.000000
H          1.601809      -1.177353       0.884689
H          1.601809      -1.177353      -0.884689
H         -2.457234       0.092531       0.000000
H         -1.601809      -1.177353      -0.884689
H         -1.601809      -1.177353       0.884689

@pcseg2.gbs

