%mem=1000mw
%nprocs=12
# b3lyp/gen opt freq

silanone, B3LYP/pcseg-2

0 1
Si        -0.491824       0.000000       0.000000
O          1.027734       0.000000       0.000000
H         -1.329005       1.226130       0.000000
H         -1.329005      -1.226130       0.000000

@pcseg2.gbs

