%mem=500mw
# b3lyp/gen opt freq

silyl, B3LYP/pcseg-2

0 2
Si	0.0000000	0.0000000	0.0805000
H	0.0000000	1.4129340	-0.3756660
H	1.2236370	-0.7064670	-0.3756660
H	-1.2236370	-0.7064670	-0.3756660

@pcseg2.gbs

