%chk=sih4.chk
%mem=500mw
%nprocs=4
# b3lyp/gen opt freq CPHF(Grid=OneStep)

silane, B3LYP/pcseg-2

0 1
Si      0.000000     0.000000     0.000000
H       0.854258     0.854258     0.854258
H      -0.854258    -0.854258     0.854258
H      -0.854258     0.854258    -0.854258
H       0.854258    -0.854258    -0.854258

@pcseg2.gbs

--Link1--
%chk=sih4.chk
%mem=500mw
%nprocs=4
# rohf/gen geom=check guess=check

silane, ROHF/cc-pVTZ-F12

0 1

@ccpvtz-f12.gbs
