%mem=500mw
# b3lyp/gen opt freq

silane, B3LYP/pcseg-2

0 1
Si
H 1 r
H 1 r 2 a
H 1 r 2 a 3 120.
H 1 r 2 a 3 -120.

r 1.3
a 109.4712

@pcseg2.gbs

