%mem=1000mw
%nprocs=12
# b3lyp/gen opt freq

silicon monohydride, B3LYP/pcseg-2

0 2
Si	0.0000000	0.0000000	0.1025260
H	0.0000000	0.0000000	-1.4353670

@pcseg2.gbs

