%mem=1000mw
%nprocs=12
# b3lyp/gen opt freq

trimethylsilane, B3LYP/pcseg-2

0 1
Si         0.000000       0.000000       0.356818
H          0.000000       0.000000       1.849746
C          0.000000       1.788358      -0.237642
C          1.548763      -0.894179      -0.237642
C         -1.548763      -0.894179      -0.237642
H          0.000000       1.843714      -1.331729
H          0.883472       2.326349       0.121494
H         -0.883472       2.326349       0.121494
H          1.596703      -0.921857      -1.331729
H          1.572941      -1.928284       0.121494
H          2.456413      -0.398065       0.121494
H         -1.596703      -0.921857      -1.331729
H         -2.456413      -0.398065       0.121494
H         -1.572941      -1.928284       0.121494

@pcseg2.gbs

