%mem=1000mw
%nprocs=12
# b3lyp/gen opt freq

silicon dioxide, B3LYP/pcseg-2

0 1
Si	0.0000000	0.0000000	0.0000000
O	0.0000000	0.0000000	1.5163850
O	0.0000000	0.0000000	-1.5163850

@pcseg2.gbs

