%mem=1000mw
%nprocs=12
# b3lyp/gen opt freq

silicon monoxide, B3LYP/pcseg-2

0 1
Si
O 1 r

r 1.6

@pcseg2.gbs

