%mem=500mw
# b3lyp/gen opt freq

sulfur monoxide, B3LYP/pcseg-2

0 3
S
O 1 r

r 1.5

@pcseg2.gbs

