%mem=500mw
%nprocs=4
# b3lyp/gen opt freq

SO2, B3LYP/pcseg-2

0 1
S
O 1 r
O 1 r 2 a

r 1.7
a 120.

@/home/irikura/basis/pcseg2.gbs

