%mem=500mw
%nprocs=6
# b3lyp/gen opt freq symm=loose

sulfur trioxide, B3LYP/pcseg-2

0 1
S	0.0000000	0.0000000	0.0000000
O	0.0000000	1.4454860	0.0000000
O	1.2518270	-0.7227430	0.0000000
O	-1.2518270	-0.7227430	0.0000000

@pcseg2.gbs

