%mem=1000mw
%nprocs=12
# b3lyp/gen opt freq

butanedioic acid, B3LYP/pcseg-2

0 1
C          0.694422       1.105283      -0.313619
C         -0.694422       1.105283       0.313619
C          1.538116      -0.045691       0.192426
C         -1.538116      -0.045691      -0.192426
O          1.258604      -0.765301       1.117457
O         -1.258604      -0.765301      -1.117457
O          2.682807      -0.165737      -0.513430
O         -2.682807      -0.165737       0.513430
H          0.636149       1.036302      -1.402771
H          1.224996       2.035601      -0.081719
H         -0.636149       1.036302       1.402771
H         -1.224996       2.035601       0.081719
H          3.164461      -0.912028      -0.126023
H         -3.164461      -0.912028       0.126023

@pcseg2.gbs

