%chk=sulfolane.chk
%mem=1000mw
%nprocs=4
# b3lyp/gen opt freq CPHF(Grid=OneStep)

sulfolane, B3LYP/pcseg-2

0 1
O       0.000000     1.254438     1.507568
S       0.000000    -0.000000     0.782998
O      -0.000000    -1.254438     1.507568
C       1.354740     0.005229    -0.441370
C      -1.354740    -0.005229    -0.441370
C       0.692793    -0.336415    -1.776112
C      -0.692793     0.336415    -1.776112
H       2.099523    -0.711311    -0.106279
H       1.771744     1.010318    -0.430930
H      -1.771744    -1.010318    -0.430930
H      -2.099523     0.711311    -0.106279
H       1.302878     0.000467    -2.613268
H       0.579042    -1.417954    -1.869152
H      -0.579042     1.417954    -1.869152
H      -1.302878    -0.000467    -2.613268

@pcseg2.gbs

--Link1--
%chk=sulfolane.chk
%mem=1000mw
%nprocs=4
# rohf/gen geom=check guess=check

sulfolane, ROHF/cc-pVTZ-F12

0 1

@ccpvtz-f12.gbs
