%mem=1000MW
%nprocs=12
# opt freq b3lyp/gen 

sulfolane, B3LYP/pcseg-2

0 1
 O                  1.23292277   -0.34392758   -1.51799025
 S                  0.00000000   -0.00000000   -0.79029198
 O                 -1.23292277    0.34392758   -1.51799025
 C                  0.36978156    1.31175841    0.45101579
 C                 -0.36978156   -1.31175841    0.45101579
 C                 -0.14260452    0.75904195    1.78525094
 C                  0.14260452   -0.75904195    1.78525094
 H                 -0.12096226    2.22757240    0.11599738
 H                  1.45480879    1.44514857    0.44425751
 H                 -1.45480879   -1.44514857    0.44425751
 H                  0.12096226   -2.22757240    0.11599738
 H                  0.34002745    1.26050349    2.63002518
 H                 -1.22180282    0.93322161    1.87095838
 H                  1.22180282   -0.93322161    1.87095838
 H                 -0.34002745   -1.26050349    2.63002518

@pcseg2.gbs

