%chk=tBu.chk
%mem=500mw
%nprocs=4
# b3lyp/gen opt freq CPHF(Grid=OneStep)

term-butyl, B3LYP/pcseg-2

0 2
C       0.000000     0.000000     0.150652
C       0.000000     1.481698    -0.014798
C       1.283188    -0.740849    -0.014798
C      -1.283188    -0.740849    -0.014798
H       0.000000     1.776033    -1.077393
H       1.538090    -0.888017    -1.077393
H      -1.538090    -0.888017    -1.077393
H      -0.884723     1.939895     0.432438
H       0.884723     1.939895     0.432438
H       2.122359    -0.203755     0.432438
H       1.237637    -1.736140     0.432438
H      -1.237637    -1.736140     0.432438
H      -2.122359    -0.203755     0.432438

@pcseg2.gbs

--Link1--
%chk=tBu.chk
%mem=500mw
%nprocs=4
# rohf/gen geom=check guess=check

term-butyl, ROHF/cc-pVTZ-F12

0 2

@ccpvtz-f12.gbs
