%chk=tBuNH2.chk
%mem=1000mw
%nprocs=4
# b3lyp/gen opt freq CPHF(Grid=OneStep)

t-butylamine, B3LYP/pcseg-2

0 1
N      -0.544606     1.387175     0.000000
C      -0.011584     0.011520     0.000000
C       1.527709    -0.018338     0.000000
C      -0.544606    -0.686486     1.255619
C      -0.544606    -0.686486    -1.255619
H      -0.219648     1.895572     0.814266
H      -0.219648     1.895572    -0.814266
H       1.911157    -1.040912    -0.000000
H       1.923212     0.487747    -0.882959
H       1.923212     0.487747     0.882959
H      -0.204464    -1.721674     1.301604
H      -0.195254    -0.181135     2.158838
H      -1.634046    -0.675792     1.263051
H      -0.204464    -1.721674    -1.301604
H      -0.195254    -0.181135    -2.158838
H      -1.634046    -0.675792    -1.263051

@pcseg2.gbs

--Link1--
%chk=tBuNH2.chk
%mem=1000mw
%nprocs=4
# rohf/gen geom=check guess=check

t-butylamine, ROHF/cc-pVTZ-F12

0 1

@ccpvtz-f12.gbs
