%mem=1000mw
%nprocs=12
# b3lyp/gen opt freq

t-butylamine, B3LYP/pcseg-2

0 1
N          0.000000      -0.388297       1.415691
C          0.000000       0.005196      -0.007957
C          0.000000       1.535919      -0.195375
C          1.257973      -0.599306      -0.648511
C         -1.257973      -0.599306      -0.648511
H          0.810773       0.018152       1.877404
H         -0.810773       0.018152       1.877404
H          0.000000       1.817836      -1.254608
H         -0.885948       1.983827       0.269146
H          0.885948       1.983827       0.269146
H          1.297492      -0.381358      -1.720365
H          2.165658      -0.187282      -0.191953
H          1.273395      -1.683756      -0.509753
H         -1.297492      -0.381358      -1.720365
H         -2.165658      -0.187282      -0.191953
H         -1.273395      -1.683756      -0.509753

@pcseg2.gbs

