%chk=TCE.chk
%mem=500mw
%nprocs=4
# b3lyp/gen opt freq CPHF(Grid=OneStep)

trichloroethylene, B3LYP/pcseg-2

0 1
C      -1.031881    -0.399145     0.000000
C      -0.000000     0.437910     0.000000
H      -2.043841    -0.028513     0.000000
Cl     -0.891405    -2.114843     0.000000
Cl     -0.273955     2.150376     0.000000
Cl      1.649779    -0.047538     0.000000

@pcseg2.gbs

--Link1--
%chk=TCE.chk
%mem=500mw
%nprocs=4
# rohf/gen geom=check guess=check

trichloroethylene, ROHF/cc-pVTZ-F12

0 1

@ccpvtz-f12.gbs
