%mem=1000mw
%nprocs=12
# b3lyp/gen opt freq

trichloroethylene, B3LYP/pcseg-2

0 1
C	-1.0375190	-0.3901960	0.0000000
C	0.0000000	0.4389670	0.0000000
H	-2.0496490	-0.0166490	0.0000000
Cl	-0.9098950	-2.1205820	0.0000000
Cl	-0.2627380	2.1662320	0.0000000
Cl	1.6593840	-0.0618840	0.0000000

@pcseg2.gbs

