%chk=thiophene.chk
%mem=500mw
%nprocs=4
# b3lyp/gen opt freq CPHF(Grid=OneStep)

thiophene, B3LYP/pcseg-2

0 1
S       0.000000    -0.000000     1.189661
C       0.000000     1.236304    -0.007111
C      -0.000000    -1.236304    -0.007111
C       0.000000     0.711381    -1.266142
C      -0.000000    -0.711381    -1.266142
H       0.000000     2.272860     0.283817
H      -0.000000    -2.272860     0.283817
H       0.000000     1.314542    -2.161594
H      -0.000000    -1.314542    -2.161594

@pcseg2.gbs

--Link1--
%chk=thiophene.chk
%mem=500mw
%nprocs=4
# rohf/gen geom=check guess=check

thiophene, ROHF/cc-pVTZ-F12

0 1

@ccpvtz-f12.gbs
