%chk=THP.chk
%mem=1000mw
%nprocs=4
# b3lyp/gen opt freq CPHF(Grid=OneStep)

tetrahydropyran, B3LYP/pcseg-2

0 1
O      -0.655248    -1.267096     0.000000
C       0.621190     1.326160    -0.000000
H       1.692615     1.099949     0.000000
H       0.531500     2.413921    -0.000000
C      -0.021098     0.729452     1.256478
C      -0.021098     0.729452    -1.256478
C      -0.021098    -0.794439    -1.181380
C      -0.021098    -0.794439     1.181380
H       0.508516     1.050940     2.156482
H       0.508516     1.050940    -2.156482
H      -1.053457     1.077733     1.346035
H      -1.053457     1.077733    -1.346035
H       1.011856    -1.171214    -1.218431
H       1.011856    -1.171214     1.218431
H      -0.568378    -1.234568    -2.014054
H      -0.568378    -1.234568     2.014054

@pcseg2.gbs

--Link1--
%chk=THP.chk
%mem=1000mw
%nprocs=4
# rohf/gen geom=check guess=check

tetrahydropyran, ROHF/cc-pVTZ-F12

0 1

@ccpvtz-f12.gbs
