%mem=500mw
%nprocs=8
# b3lyp/gen opt freq symm=loose

tetrahydropyran, B3LYP/pcseg-2

0 1
O	-0.6546260	-1.2666000	0.0000000
C	0.6225110	1.3255140	0.0000000
H	1.6934540	1.0953390	0.0000000
H	0.5370110	2.4140270	0.0000000
C	-0.0217150	0.7300650	1.2567470
C	-0.0217150	0.7300650	-1.2567470
C	-0.0217150	-0.7945590	-1.1811820
C	-0.0217150	-0.7945590	1.1811820
H	0.5076880	1.0507090	2.1576160
H	0.5076880	1.0507090	-2.1576160
H	-1.0542910	1.0788040	1.3458920
H	-1.0542910	1.0788040	-1.3458920
H	1.0118510	-1.1713630	-1.2175620
H	1.0118510	-1.1713630	1.2175620
H	-0.5689330	-1.2360060	-2.0139520
H	-0.5689330	-1.2360060	2.0139520

@pcseg2.gbs

