%chk=TMS.chk
%mem=1000mw
%nprocs=4
# b3lyp/gen opt freq CPHF(Grid=OneStep)

tetramethylsilane, B3LYP/pcseg-2

0 1
Si      0.000000     0.000000     0.000000
C       1.088705     1.088705     1.088705
C      -1.088705    -1.088705     1.088705
C      -1.088705     1.088705    -1.088705
C       1.088705    -1.088705    -1.088705
H       1.732163     0.485458     1.732163
H       1.732163     1.732163     0.485458
H       0.485458     1.732163     1.732163
H      -1.732163    -1.732163     0.485458
H      -0.485458    -1.732163     1.732163
H      -1.732163    -0.485458     1.732163
H      -1.732163     0.485458    -1.732163
H      -1.732163     1.732163    -0.485458
H      -0.485458     1.732163    -1.732163
H       1.732163    -1.732163    -0.485458
H       0.485458    -1.732163    -1.732163
H       1.732163    -0.485458    -1.732163

@pcseg2.gbs

--Link1--
%chk=TMS.chk
%mem=1000mw
%nprocs=4
# rohf/gen geom=check guess=check

tetramethylsilane, ROHF/cc-pVTZ-F12

0 1

@ccpvtz-f12.gbs
