%mem=1000mw
%nprocs=12
# b3lyp/gen opt freq

tetramethylsilane, B3LYP/pcseg-2

0 1
Si	0.0000000	0.0000000	0.0000000
C	1.0957030	1.0957030	1.0957030
C	-1.0957030	-1.0957030	1.0957030
C	-1.0957030	1.0957030	-1.0957030
C	1.0957030	-1.0957030	-1.0957030
H	1.7398230	0.4917530	1.7398230
H	1.7398230	1.7398230	0.4917530
H	0.4917530	1.7398230	1.7398230
H	-1.7398230	-1.7398230	0.4917530
H	-0.4917530	-1.7398230	1.7398230
H	-1.7398230	-0.4917530	1.7398230
H	-1.7398230	0.4917530	-1.7398230
H	-1.7398230	1.7398230	-0.4917530
H	-0.4917530	1.7398230	-1.7398230
H	1.7398230	-1.7398230	-0.4917530
H	0.4917530	-1.7398230	-1.7398230
H	1.7398230	-0.4917530	-1.7398230

@pcseg2.gbs

