%chk=toluene.chk
%mem=1000mw
%nprocs=4
# b3lyp/gen opt freq CPHF(Grid=OneStep)

toluene, B3LYP/pcseg-2

0 1
C       0.004010     0.910348     0.000000
C       0.007038     0.193554     1.197313
C       0.007038    -1.196329     1.200123
C       0.005857    -1.897401    -0.000000
C       0.007038    -1.196329    -1.200123
C       0.007038     0.193554    -1.197313
C      -0.026804     2.416563     0.000000
H       0.012052     0.730423     2.137892
H       0.011539    -1.731589     2.140428
H       0.008695    -2.978953    -0.000000
H       0.011539    -1.731589    -2.140428
H       0.012052     0.730423    -2.137892
H      -1.054724     2.788236     0.000000
H       0.465777     2.824648     0.882465
H       0.465777     2.824648    -0.882465

@pcseg2.gbs

--Link1--
%chk=toluene.chk
%mem=1000mw
%nprocs=4
# rohf/gen geom=check guess=check

toluene, ROHF/cc-pVTZ-F12

0 1

@ccpvtz-f12.gbs
