%chk=urea.chk
%mem=500mw
%nprocs=4
# b3lyp/gen opt freq CPHF(Grid=OneStep)

urea, B3LYP/pcseg-2

0 1
C       0.000000     0.000000     0.142666
O       0.000000     0.000000     1.357562
N       0.000000     1.160693    -0.607398
N      -0.000000    -1.160693    -0.607398
H       0.190314     1.991512    -0.073640
H       0.393465     1.143288    -1.532820
H      -0.190314    -1.991512    -0.073640
H      -0.393465    -1.143288    -1.532820

@pcseg2.gbs

--Link1--
%chk=urea.chk
%mem=500mw
%nprocs=4
# rohf/gen geom=check guess=check

urea, ROHF/cc-pVTZ-F12

0 1

@ccpvtz-f12.gbs
