%mem=500mw
# b3lyp/gen opt freq

phosphorus atom, B3LYP/pcseg-2

0 4
P

@pcseg2.gbs

